
units                   metal #Changed from real to metal
dimension               3
boundary                p p f #changed from p p p to p p f
atom_style              full
#--------------------------------------------------------------------------------

# Variables
variable                Nsteps equal 100000
variable                dt equal 5.0
variable                seed equal 20000 #12345 # random number seed
#--------------------------------------------------------------------------------

# creating simulation box
read_data               data.Ti extra/bond/types 1 extra/bond/per/atom 2
Reading data file ...
  orthogonal box = (0 0 0) to (100 100 800)
  2 by 1 by 12 MPI processor grid
Finding 1-2 1-3 1-4 neighbors ...
  special bond factors lj:    0        0        0       
  special bond factors coul:  0        0        0       
     0 = max # of 1-2 neighbors
     0 = max # of 1-3 neighbors
     0 = max # of 1-4 neighbors
     1 = max # of special neighbors
  special bonds CPU = 0.050 seconds
  read_data CPU = 0.064 seconds

#change_box all z final 0 ${Lz} units box #for only change in Lz
change_box              all x final 0 ${Lx} y final 0 ${Ly} z final 0 ${Lz} units box #for change in Lz, Lx, and Ly
change_box              all x final 0 26.55 y final 0 ${Ly} z final 0 ${Lz} units box 
change_box              all x final 0 26.55 y final 0 26.55 z final 0 ${Lz} units box 
change_box              all x final 0 26.55 y final 0 26.55 z final 0 56.63498256112159 units box 
Changing box ...
  orthogonal box = (0 0 0) to (26.55 100 800)
  orthogonal box = (0 0 0) to (26.55 26.55 800)
  orthogonal box = (0 0 0) to (26.55 26.55 56.634983)

timestep                0.001

neighbor                1.5 bin
#-----------------------------------------------------------------------------------

#defining Ti region
group                   titanium type 1
0 atoms in group titanium

region                  Ti_zone block INF INF INF INF INF 16 units box
#changed from 8
region                  bottom block INF INF INF INF INF 4 units box #Ti bottom layer region

region                  middle block INF INF INF INF 4 8 units box #Ti middle layer

region                  upper block INF INF INF INF 8 16 units box #Ti upper layer region

#---------------------------------------------------------------------------------------------
#obseration regions
region                  obs_Ti block INF INF INF INF 8 16 units box #observation region - to observe temperature of moving Ti layer
#changed from 3 8

region                  obs block INF INF INF INF 16 19 units box #observation region - for physisorption effect
#changed from 8 11

region                  obs_O2 block INF INF INF INF 19 INF units box #observation region - for gas temperature
#changed from 11
#-------------------------------------------------------------------------------

#lennard-jones
pair_style              hybrid lj/cut 15.0 eam/fs #changed from 15 to 10

pair_coeff              * * eam/fs Ti1.eam.fs Ti NULL #Ti-Ti
pair_coeff              2 2 lj/cut 0.0044640704 3.00578 #O-O #taken from: file://ifs.eng.cam.ac.uk/users/lkm41/Downloads/Short-Time_Oxidation_Behavior_of_Low-Carbon_Low-Si.pdf
pair_coeff              1 2 lj/cut 0.0105961 2.60289 #Ti-O #mixing lennard jones potential

# O2 Bonds
bond_style              harmonic
bond_coeff              1 847.0 1.21

special_bonds           lj 0.0 0.0 1.0
Finding 1-2 1-3 1-4 neighbors ...
  special bond factors lj:    0        0        1       
  special bond factors coul:  0        0        0       
     0 = max # of 1-2 neighbors
     0 = max # of 1-3 neighbors
     0 = max # of 1-4 neighbors
     1 = max # of special neighbors
  special bonds CPU = 0.001 seconds

#creating atoms for Ti_zone
lattice                 hcp 2.95
Lattice spacing in x,y,z = 2.95 5.1095499 4.8173298
create_atoms            1 region Ti_zone
Created 666 atoms
  using lattice units in orthogonal box = (0 0 0) to (26.55 26.55 56.634983)
  create_atoms CPU = 0.006 seconds

#---------------------------------------------------------------------------------------
#Ti_zone groups
group                   bottom region bottom
189 atoms in group bottom
group                   middle region middle
189 atoms in group middle
group                   upper region upper
288 atoms in group upper
#-------------------------------------------------------------------------------------

#creating O2 molecules
molecule                O2 O2.txt #made from given file
Read molecule template O2:
# O2 molecule
  1 molecules
  0 fragments
  0 bodies
  2 atoms with max type 1
  1 bonds with max type 1
  0 angles with max type 0
  0 dihedrals with max type 0
  0 impropers with max type 0

region                  gas block INF INF INF INF 19.0 ${Lz_minus_one} units box #gas region above  Ti slab
region                  gas block INF INF INF INF 19.0 55.63498256112159 units box 


create_atoms            1 random ${N} ${seed} gas mol O2 ${seed} units box
create_atoms            1 random 26 ${seed} gas mol O2 ${seed} units box
create_atoms            1 random 26 20000 gas mol O2 ${seed} units box
create_atoms            1 random 26 20000 gas mol O2 20000 units box
Created 52 atoms
  using box units in orthogonal box = (0 0 0) to (26.55 26.55 56.634983)
  create_atoms CPU = 0.000 seconds
group                   O2_zone region gas
51 atoms in group O2_zone

group                   mobile subtract all bottom middle
340 atoms in group mobile

fix                     freeze bottom setforce 0.0 0.0 0.0

fix                     balance all balance 5000 1.1 shift xyz 5 1.05

#obervation group for physisorption
group                   obs dynamic all region obs every 1000
dynamic group obs defined
#obervation group for titanium layer
group                   obs_Ti dynamic all region obs_Ti every 1000
dynamic group obs_Ti defined

#----------------------------------------------------------------------------------------------------------------------
#observation for pressure

variable                zhi equal ${Lz}
variable                zhi equal 56.63498256112159
variable                zlo equal ${Lz}-200
variable                zlo equal 56.63498256112159-200

region                  gas_obs_zone block INF INF INF INF ${zlo} ${zhi} units box
region                  gas_obs_zone block INF INF INF INF -143.365017438878 ${zhi} units box
region                  gas_obs_zone block INF INF INF INF -143.365017438878 56.6349825611216 units box

group                   O2_in_obs_zone dynamic all region gas_obs_zone every 100
dynamic group O2_in_obs_zone defined

variable                O2_obs_zone_volume equal lx*ly*(${zhi}-${zlo})
variable                O2_obs_zone_volume equal lx*ly*(56.6349825611216-${zlo})
variable                O2_obs_zone_volume equal lx*ly*(56.6349825611216--143.365017438878)

compute                 O2_zone_temp O2_in_obs_zone temp

compute                 O2stress O2_in_obs_zone stress/atom O2_zone_temp
compute                 sum_stress O2_in_obs_zone reduce sum c_O2stress[1] c_O2stress[2] c_O2stress[3]
variable                O2pressure equal (-1)*(c_sum_stress[1]+c_sum_stress[2]+c_sum_stress[3])/(3*v_O2_obs_zone_volume)
#----------------------------------------------------------------------------------------------------------------------

#obervation group for O2
group                   obs_O2 dynamic O2_zone region obs_O2 every 1000
dynamic group obs_O2 defined
minimize                1e-6 1e-6 1000 10000 # shift atom locations to minimize the potential energy of the system. Helps if we accidentally introduce atoms that are overlapping and repel each other very strongly.
WARNING: Using a manybody potential with bonds/angles/dihedrals and special_bond exclusions (src/pair.cpp:251)
Neighbor list info ...
  update: every = 1 steps, delay = 0 steps, check = yes
  max neighbors/atom: 2000, page size: 100000
  master list distance cutoff = 16.5
  ghost atom cutoff = 16.5
  binsize = 8.25, bins = 4 4 7
  3 neighbor lists, perpetual/occasional/extra = 3 0 0
  (1) pair lj/cut, perpetual, skip from (3)
      attributes: half, newton on
      pair build: skip
      stencil: none
      bin: none
  (2) pair eam/fs, perpetual, skip from (3)
      attributes: half, newton on
      pair build: skip
      stencil: none
      bin: none
  (3) neighbor class addition, perpetual
      attributes: half, newton on
      pair build: half/bin/newton
      stencil: half/bin/3d
      bin: standard
Per MPI rank memory allocation (min/avg/max) = 12.09 | 19.16 | 22.89 Mbytes
   Step          Temp          E_pair         E_mol          TotEng         Press          Volume    
         0   0              13357.368      0.198198       13357.566      2354565.5      39922.141    
       108   0             -2511.7263      0.00024997695 -2511.7261      59368.029      39922.141    
Loop time of 0.146029 on 24 procs for 108 steps with 718 atoms

97.7% CPU use with 24 MPI tasks x 1 OpenMP threads

Minimization stats:
  Stopping criterion = energy tolerance
  Energy initial, next-to-last, final = 
      13357.5662228861   -2511.7241250344  -2511.72605556742
  Force two-norm initial, final = 223819.69 2.1589038
  Force max component initial, final = 118046.06 0.50758115
  Final line search alpha, max atom move = 0.11225263 0.056977317
  Iterations, force evaluations = 108 203

MPI task timing breakdown:
Section |  min time  |  avg time  |  max time  |%varavg| %total
---------------------------------------------------------------
Pair    | 0.10169    | 0.10891    | 0.11854    |   2.0 | 74.58
Bond    | 2.8663e-05 | 5.1021e-05 | 7.8164e-05 |   0.0 |  0.03
Neigh   | 0.0023318  | 0.0024592  | 0.0027939  |   0.3 |  1.68
Comm    | 0.0051398  | 0.021539   | 0.033282   |   7.2 | 14.75
Output  | 0          | 0          | 0          |   0.0 |  0.00
Modify  | 1.9847e-05 | 4.3401e-05 | 0.00013034 |   0.0 |  0.03
Other   |            | 0.01303    |            |       |  8.92

Nlocal:        29.9167 ave         105 max           0 min
Histogram: 16 0 0 2 0 0 0 0 3 3
Nghost:        1344.42 ave        2737 max          78 min
Histogram: 10 0 0 2 0 2 0 0 2 8
Neighs:              0 ave           0 max           0 min
Histogram: 24 0 0 0 0 0 0 0 0 0

Total # of neighbors = 0
Ave neighs/atom = 0
Ave special neighs/atom = 0.072423398
Neighbor list builds = 3
Dangerous builds = 0

velocity                all create ${T} ${seed} rot yes mom no
velocity                all create 300 ${seed} rot yes mom no
velocity                all create 300 20000 rot yes mom no
velocity                bottom set 0.0 0.0 0.
velocity                middle create ${T} ${seed} mom yes rot no dist gaussian
velocity                middle create 300 ${seed} mom yes rot no dist gaussian
velocity                middle create 300 20000 mom yes rot no dist gaussian

#variable                P equal ${P}
#fix                     integrator mobile npt temp ${T} ${T} 100 z 1.0 1.0 1000
#fix                     integrator mobile npt temp ${T} ${T} 100 x 1.0 1.0 1000 y 1.0 1.0 1000
#fix                      integrator mobile npt temp ${T} ${T} 100 x ${P} ${P} 1000 y ${P} ${P} 1000
fix                     integrator_O2 O2_zone nvt temp ${T} ${T} 100
fix                     integrator_O2 O2_zone nvt temp 300 ${T} 100
fix                     integrator_O2 O2_zone nvt temp 300 300 100

fix                     integrator_Ti upper nve
fix                     Ti_thermostat middle nvt temp ${T} ${T} 0.1
fix                     Ti_thermostat middle nvt temp 300 ${T} 0.1
fix                     Ti_thermostat middle nvt temp 300 300 0.1

fix                     zwalls all wall/reflect zlo EDGE zhi EDGE #reflective walls on the top and bottom surface to stop O2 molecules being lost

#----------------------------------------------------------------------------------------------------------------------

#count the number of atoms
variable                n_obs equal count(obs)

#measure the temperature of physisorption region
compute                 obsTemp obs temp

#measure temperature of Ti
compute                 obs_TiTemp obs_Ti temp

#measure temperature of O2
compute                 obs_O2Temp obs_O2 temp

#measure temperature of middle layer
compute                 T_middle middle temp

#____________________________________________________________________________________________________________________________

#outputs
thermo_style            custom step etotal ke pe density temp c_obsTemp c_obs_TiTemp c_T_middle c_obs_O2Temp press v_O2pressure v_n_obs # what to print
thermo                  1000 # print every 1000 timesteps

dump                    traj all custom 1000 dumps_shock/dump_${T}_${P}.dump id type x y z vx vy vz
dump                    traj all custom 1000 dumps_shock/dump_300_${P}.dump id type x y z vx vy vz
dump                    traj all custom 1000 dumps_shock/dump_300_27.5.dump id type x y z vx vy vz

restart                 250000 restarts_shock/restart.*

run                     5000000
WARNING: Using a manybody potential with bonds/angles/dihedrals and special_bond exclusions (src/pair.cpp:251)
Per MPI rank memory allocation (min/avg/max) = 11.02 | 17.38 | 20.69 Mbytes
   Step         TotEng         KinEng         PotEng        Density          Temp        c_obsTemp     c_obs_TiTemp    c_T_middle    c_obs_O2Temp      Press       v_O2pressure     v_n_obs    
       108  -2491.2771      20.448975     -2511.7261      1.360611       220.64178      0              303.28449      300            292.98501      59915.141      16966.465      1            
      1000  -2478.583       20.364221     -2498.9473      1.360611       219.72729      582.79714      294.64534      301.79482      273.00926      56750.825      16070.41       10           
      2000  -2479.9184      19.607707     -2499.5261      1.360611       211.5646       357.38698      294.37086      281.33049      282.07207      57993.89       16422.415      4            
      3000  -2478.6523      20.970206     -2499.6225      1.360611       226.26579      312.55333      313.779        304.34719      298.49353      55678.126      15766.648      9            
      4000  -2479.216       20.36815      -2499.5842      1.360611       219.76969      262.46647      308.51872      293.3655       290.2661       54634.02       15470.984      16           
      5000  -2478.2355      20.819862     -2499.0553      1.360611       224.6436       514.30129      301.3368       305.11885      268.80839      55634.209      15754.212      18           
      6000  -2478.4517      20.969449     -2499.4212      1.360611       226.25762      378.78884      318.29761      299.08049      272.35001      56293.417      15940.883      15           
      7000  -2479.1156      20.598685     -2499.7143      1.360611       222.25713      299.87973      304.58032      311.21592      265.84191      56764.291      16074.223      20           
      8000  -2478.9021      21.042545     -2499.9447      1.360611       227.04632      312.95344      327.8654       294.85191      259.71845      55504.242      15717.409      19           
      9000  -2478.4435      21.054597     -2499.4981      1.360611       227.17636      315.0646       315.08857      313.93016      262.40995      55853.692      15816.364      18           
     10000  -2479.3421      20.966332     -2500.3084      1.360611       226.22399      322.72918      300.64581      326.33666      280.60428      56503.263      16000.307      18           
     11000  -2480.3204      19.892564     -2500.2129      1.360611       214.63818      371.95609      308.88481      264.37646      280.52363      56650.964      16042.132      21           
     12000  -2479.8929      20.44114      -2500.334       1.360611       220.55724      329.10454      296.84778      311.91267      269.45195      56555.262      16015.031      20           
     13000  -2480.2672      19.67131      -2499.9385      1.360611       212.25088      314.68405      286.0129       298.42624      266.88072      56036.457      15868.119      19           
     14000  -2478.2796      21.309788     -2499.5894      1.360611       229.92984      323.11045      316.22651      320.02699      271.13876      56459.052      15987.787      17           
     15000  -2479.0181      20.086183     -2499.1043      1.360611       216.7273       255.98495      300.72545      304.80753      242.15215      56047.178      15871.155      24           
     16000  -2478.6491      21.283189     -2499.9323      1.360611       229.64283      243.29871      331.46501      311.48458      237.22627      56924.078      16119.471      24           
     17000  -2480.1113      19.709285     -2499.8206      1.360611       212.66061      245.73005      319.29913      261.52583      254.06785      54513.686      15436.908      23           
     18000  -2478.2619      21.54147      -2499.8034      1.360611       232.42965      265.57268      334.96843      308.25358      265.02602      57403.461      16255.22       24           
     19000  -2479.006       20.706252     -2499.7123      1.360611       223.41776      267.57029      316.16091      296.42381      290.15124      55380.764      15682.443      23           
     20000  -2478.2265      20.231887     -2498.4584      1.360611       218.29942      481.71984      278.55077      307.87146      291.77944      56373.684      15963.613      22           
     21000  -2478.9267      21.239013     -2500.1657      1.360611       229.16619      392.55828      331.90803      277.81142      303.60798      56883.08       16107.861      23           
     22000  -2480.2139      19.569839     -2499.7838      1.360611       211.15602      301.55282      307.69315      251.30139      324.31798      54851.735      15532.635      26           
     23000  -2479.4759      20.065069     -2499.5409      1.360611       216.49948      324.02895      288.36881      297.97626      319.0116       56300.859      15942.991      27           
     24000  -2479.0271      20.093908     -2499.121       1.360611       216.81065      338.74685      299.74206      285.96541      290.4238       54231.005      15356.86       27           
     25000  -2479.7974      19.246369     -2499.0438      1.360611       207.66582      337.76433      268.17941      301.10716      276.59372      56670.956      16047.793      24           
     26000  -2478.6941      19.761938     -2498.456       1.360611       213.22874      272.53424      286.8255       303.01072      275.21809      55487.506      15712.67       22           
     27000  -2479.7847      19.88397      -2499.6687      1.360611       214.54545      284.41678      292.50183      296.80259      282.89537      56704.295      16057.234      23           
     28000  -2480.5424      19.445953     -2499.9884      1.360611       209.81931      316.61609      295.63609      265.18251      308.22627      56260.026      15931.428      25           
     29000  -2480.2136      19.906837     -2500.1204      1.360611       214.79218      285.15271      296.63778      290.77147      287.79015      55599.011      15744.245      27           
     30000  -2478.2361      20.040774     -2498.2769      1.360611       216.23734      266.40158      283.46083      314.46078      303.34218      56680.396      16050.466      22           
     31000  -2480.5485      19.316665     -2499.8651      1.360611       208.4243       212.48724      281.48207      297.28817      291.10617      56162.457      15903.799      25           
     32000  -2478.968       20.566568     -2499.5345      1.360611       221.91059      324.80749      303.84696      300.16241      299.70911      57013.922      16144.912      22           
     33000  -2481.1446      19.017902     -2500.1625      1.360611       205.20069      213.24576      286.69649      276.54271      294.39826      54899.016      15546.024      25           
     34000  -2479.4265      20.137182     -2499.5636      1.360611       217.27757      269.64391      304.46244      294.40165      267.63788      57059.912      16157.936      24           
     35000  -2479.0325      20.619903     -2499.6524      1.360611       222.48607      210.42472      305.48248      319.53841      270.02366      54714.983      15493.911      24           
     36000  -2480.1357      19.309422     -2499.4452      1.360611       208.34615      285.1292       292.09044      277.39638      264.15154      56116.035      15890.653      25           
     37000  -2479.9132      19.931599     -2499.8448      1.360611       215.05936      263.16095      306.02347      281.93586      282.0032       55360.369      15676.668      26           
     38000  -2479.5833      20.188721     -2499.772       1.360611       217.83367      289.34254      298.7768       296.59894      298.06062      55708.925      15775.37       26           
     39000  -2480.4073      19.460644     -2499.8679      1.360611       209.97782      328.69555      271.18507      296.94932      325.73841      55662.14       15762.122      23           
     40000  -2479.9924      19.78288      -2499.7753      1.360611       213.4547       382.06255      279.65049      293.90327      303.02622      54959.287      15563.091      27           
     41000  -2479.8257      20.745307     -2500.571       1.360611       223.83916      286.85795      338.16451      260.83678      303.74714      57158.532      16185.862      21           
     42000  -2479.4122      19.554214     -2498.9665      1.360611       210.98743      317.02754      288.79606      287.20271      272.96466      54791.743      15515.647      22           
     43000  -2478.3617      20.568812     -2498.9306      1.360611       221.9348       232.68354      314.36723      300.25616      273.64257      57189.724      16194.695      21           
     44000  -2478.1842      21.005809     -2499.19        1.360611       226.64994      240.79021      307.94051      325.81646      280.15851      55134.864      15612.81       22           
     45000  -2479.2368      19.941622     -2499.1784      1.360611       215.16751      246.4239       293.54401      303.6478       272.55066      57192.38       16195.447      20           
     46000  -2477.942       21.122549     -2499.0646      1.360611       227.90955      267.03972      325.74378      300.87084      281.52807      56066.235      15876.551      20           
     47000  -2478.001       21.216592     -2499.2176      1.360611       228.92427      276.58411      303.65149      336.23265      281.83301      56141.91       15897.981      19           
     48000  -2479.8006      20.796002     -2500.5966      1.360611       224.38615      288.50337      314.76541      301.30114      282.31375      55945.924      15842.482      19           
     49000  -2478.7197      20.894458     -2499.6141      1.360611       225.44848      261.27825      307.21007      318.46079      286.8388       55197.203      15630.463      21           
     50000  -2479.3277      20.488342     -2499.8161      1.360611       221.06655      284.13161      319.3265       280.67157      289.64606      56606.142      16029.439      18           
     51000  -2478.3179      21.383615     -2499.7015      1.360611       230.72642      325.95278      330.94542      297.09778      288.73443      54584.972      15457.095      20           
     52000  -2478.8763      20.282484     -2499.1588      1.360611       218.84536      390.99407      306.39716      277.83366      295.45765      57377.312      16247.815      23           
     53000  -2478.5201      21.548585     -2500.0686      1.360611       232.50643      387.32515      329.04303      296.3675       297.99864      55196.662      15630.31       23           
     54000  -2480.0884      19.54855      -2499.637       1.360611       210.92631      358.52489      282.40266      286.05068      295.54576      56406.095      15972.791      25           
     55000  -2480.2367      18.830922     -2499.0676      1.360611       203.1832       277.53189      278.08694      274.98324      286.18778      54665.488      15479.895      25           
     56000  -2478.8444      20.004608     -2498.849       1.360611       215.84712      305.97182      274.37858      326.00296      282.6206       56293.628      15940.943      23           
     57000  -2478.8349      20.938141     -2499.773       1.360611       225.91981      371.93961      310.34655      302.78507      289.33814      56579.71       16021.954      22           
     58000  -2479.6926      20.307059     -2499.9997      1.360611       219.11052      345.36017      285.12475      315.7913       296.16797      56909.002      16115.202      21           
     59000  -2480.0169      20.286534     -2500.3035      1.360611       218.88907      336.97316      283.2713       317.29815      302.99432      56020.083      15863.482      20           
     60000  -2478.7641      21.350273     -2500.1143      1.360611       230.36666      377.75028      313.50799      309.31068      310.685        55602.029      15745.1        24           
     61000  -2479.1035      20.58392      -2499.6874      1.360611       222.09782      266.07519      308.95553      295.19784      322.88757      57324.466      16232.851      22           
     62000  -2478.1389      20.57066      -2498.7095      1.360611       221.95475      235.51623      299.50515      313.5783       311.28979      56027.476      15865.576      20           
     63000  -2478.892       21.065305     -2499.9573      1.360611       227.2919       228.7946       326.0532       298.38033      302.60857      56700.532      16056.168      23           
     64000  -2477.55        21.22427      -2498.7743      1.360611       229.00711      271.60492      318.35271      312.65625      302.401        55440.171      15699.266      30           
     65000  -2479.1481      20.732519     -2499.8806      1.360611       223.70118      292.1999       316.21583      290.60553      311.80318      56546.517      16012.555      29           
     66000  -2479.6502      20.982805     -2500.633       1.360611       226.40174      333.77449      305.34928      307.43095      331.18156      56053.067      15872.822      32           
     67000  -2479.3881      20.967722     -2500.3558      1.360611       226.23899      328.4533       310.76172      301.56521      318.89356      56605.348      16029.215      32           
     68000  -2479.306       20.023186     -2499.3291      1.360611       216.04757      298.43266      283.56748      304.20767      337.54304      56471.93       15991.434      26           
     69000  -2478.9615      20.604434     -2499.566       1.360611       222.31916      331.08592      298.7413       300.19659      340.41072      55393.281      15685.987      28           
     70000  -2478.0782      21.342992     -2499.4212      1.360611       230.28811      326.54438      304.43202      326.39185      320.5544       56647.518      16041.156      28           
     71000  -2479.9552      20.342297     -2500.2975      1.360611       219.49074      260.28404      292.93287      312.86932      314.70771      56155.181      15901.738      28           
     72000  -2480.609       19.746307     -2500.3553      1.360611       213.06008      267.26248      278.48305      305.87917      335.95582      56447.985      15984.653      29           
     73000  -2480.7348      20.238396     -2500.9732      1.360611       218.36966      239.30697      302.40681      294.02184      328.82566      55664.394      15762.76       25           
     74000  -2479.4011      20.884167     -2500.2853      1.360611       225.33744      308.45621      298.24837      323.7295       294.45051      57476.771      16275.98       31           
     75000  -2478.5535      21.34861      -2499.9021      1.360611       230.34873      312.69642      316.19113      316.93762      282.90952      55864.016      15819.288      34           
     76000  -2478.1017      20.470114     -2498.5718      1.360611       220.86986      254.80855      283.54429      326.49184      353.33796      56748.091      16069.636      29           
     77000  -2480.1462      20.587614     -2500.7338      1.360611       222.13767      295.72586      297.78681      303.20145      359.42209      55018.113      15579.749      28           
     78000  -2479.5885      19.676244     -2499.2648      1.360611       212.30411      202.38665      287.79057      296.67786      334.74005      56328.086      15950.701      26           
     79000  -2479.927       20.724661     -2500.6516      1.360611       223.6164       319.89268      298.11059      305.62256      352.07932      56426.678      15978.62       30           
     80000  -2479.1583      20.750384     -2499.9087      1.360611       223.89394      318.50441      288.33691      318.13931      380.72494      54686.899      15485.958      33           
     81000  -2479.6478      20.989575     -2500.6373      1.360611       226.47478      265.21193      297.40317      324.38882      361.22135      57549.521      16296.58       30           
     82000  -2480.5049      19.863576     -2500.3685      1.360611       214.3254       246.88793      295.87242      281.83704      360.62405      55044.389      15587.19       26           
     83000  -2479.4571      19.493788     -2498.9509      1.360611       210.33544      331.31579      285.70765      273.27422      342.84325      57697.18       16338.394      25           
     84000  -2479.5229      19.75414      -2499.277       1.360611       213.1446       273.85416      299.97494      271.1802       334.42864      54327.004      15384.045      25           
     85000  -2478.8575      20.475976     -2499.3335      1.360611       220.93311      272.82856      286.90417      326.54935      304.50612      55376.355      15681.194      25           
     86000  -2480.9485      19.559196     -2500.5077      1.360611       211.04118      277.72918      271.70724      307.8865       320.44819      55783.187      15796.399      28           
     87000  -2481.5485      20.149051     -2501.6976      1.360611       217.40564      312.2513       291.26989      294.60004      342.7841       56370.124      15962.605      24           
     88000  -2479.027       20.825923     -2499.8529      1.360611       224.709        275.20008      297.56838      318.07399      339.52419      55850.892      15815.572      24           
     89000  -2480.0099      20.155612     -2500.1655      1.360611       217.47644      323.39561      292.872        289.27046      349.87865      54965.74       15564.919      29           
     90000  -2480.9276      20.045749     -2500.9734      1.360611       216.29102      232.55478      293.7959       287.58417      398.34251      57289.647      16222.991      28           
     91000  -2479.9538      20.497274     -2500.4511      1.360611       221.16292      280.39381      288.28352      308.81457      417.48345      54444.782      15417.396      33           
     92000  -2479.5577      20.568977     -2500.1267      1.360611       221.93659      267.05599      301.81698      295.90653      407.80478      56478.765      15993.369      35           
     93000  -2479.52        20.464948     -2499.985       1.360611       220.81412      241.05667      298.28736      303.6107       370.92899      55146.342      15616.061      29           
     94000  -2479.1385      21.20677      -2500.3453      1.360611       228.81829      254.61726      310.01347      319.42657      349.409        56100.543      15886.266      30           
     95000  -2479.1358      19.772375     -2498.9081      1.360611       213.34136      273.0482       310.60586      263.69506      308.9877       56108.78       15888.599      34           
     96000  -2479.154       20.481438     -2499.6355      1.360611       220.99205      203.89415      314.66424      290.77317      370.60044      54724.501      15496.606      35           
     97000  -2478.9118      21.158845     -2500.0707      1.360611       228.30118      269.14277      311.39409      313.68054      350.32213      57706.585      16341.057      32           
     98000  -2480.0505      19.889252     -2499.9398      1.360611       214.60244      297.01607      282.38044      296.92082      374.82868      55833.952      15810.775      34           
     99000  -2478.8592      20.661349     -2499.5206      1.360611       222.93326      277.90165      284.09989      331.0204       352.61984      58496.326      16564.692      31           
    100000  -2480.6196      20.489768     -2501.1094      1.360611       221.08193      255.04481      320.78788      280.26851      303.99585      54611.995      15464.747      27           
    101000  -2479.5155      20.680598     -2500.1961      1.360611       223.14096      236.13556      306.15027      313.45717      301.4593       57487.062      16278.894      29           
    102000  -2479.8019      20.485765     -2500.2876      1.360611       221.03874      328.5462       306.63529      291.29444      301.36802      54888.251      15542.976      27           
    103000  -2479.4437      20.015194     -2499.4589      1.360611       215.96134      225.90947      302.3248       297.23706      279.38018      56912.173      16116.1        29           
    104000  -2482.3538      19.400169     -2501.754       1.360611       209.3253       335.01634      280.42082      287.65841      281.34702      55746.534      15786.02       28           
    105000  -2481.329       20.177361     -2501.5064      1.360611       217.7111       272.6235       289.4386       313.6177       291.11375      55493.083      15714.249      28           
    106000  -2481.2069      18.363555     -2499.5704      1.360611       198.14037      238.63072      263.84886      281.41543      292.62417      55819.072      15806.561      29           
    107000  -2480.3008      19.531981     -2499.8328      1.360611       210.74753      285.28064      281.44473      297.89842      285.85822      54625.261      15468.504      27           
    108000  -2479.7336      20.217177     -2499.9508      1.360611       218.14071      278.13909      296.63143      306.7268       275.76363      58043.541      16436.475      31           
    109000  -2479.5999      19.351034     -2498.951       1.360611       208.79514      302.98539      282.86483      294.03076      246.65484      54706.549      15491.522      23           
    110000  -2477.2682      20.970009     -2498.2382      1.360611       226.26367      322.02658      322.41424      302.95774      228.79028      58382.89       16532.57       22           
    111000  -2478.9137      19.833861     -2498.7476      1.360611       214.00478      338.47027      304.65568      277.43173      230.53653      53860.759      15252.016      28           
    112000  -2478.6023      20.6902       -2499.2925      1.360611       223.24456      332.1592       290.47581      332.06834      258.85751      57372.319      16246.402      23           
    113000  -2477.956       20.970209     -2498.9262      1.360611       226.26583      346.39523      307.69465      314.90591      270.80652      55978.775      15851.785      22           
    114000  -2478.4717      20.881666     -2499.3534      1.360611       225.31046      226.62316      323.24275      305.34391      249.51665      55847.525      15814.618      17           
    115000  -2479.0601      20.400204     -2499.4603      1.360611       220.11554      220.64314      297.03347      321.75007      265.72317      57219.539      16203.138      20           
    116000  -2479.8814      20.088184     -2499.9696      1.360611       216.74889      283.56324      292.21047      307.77227      272.87152      54322.431      15382.75       21           
    117000  -2480.1537      20.06079      -2500.2145      1.360611       216.45331      268.25215      289.6158       305.90348      307.35122      58164.775      16470.805      26           
    118000  -2478.9982      20.336684     -2499.3349      1.360611       219.43017      282.22422      293.27453      312.8177       290.7281       54972.815      15566.922      20           
    119000  -2480.0484      20.820629     -2500.869       1.360611       224.65188      304.32798      317.1473       300.53465      265.30797      58488.705      16562.534      23           
    120000  -2477.8107      20.955882     -2498.7666      1.360611       226.11124      219.38647      329.56515      299.53737      269.29522      54586.133      15457.424      29           
    121000  -2478.8581      20.203557     -2499.0616      1.360611       217.99376      224.36096      300.22514      297.02255      327.33794      57303.798      16226.998      24           
    122000  -2479.2823      20.63914      -2499.9214      1.360611       222.69364      297.55629      296.77965      312.26137      321.99103      55834.732      15810.995      25           
    123000  -2481.1762      19.91102      -2501.0872      1.360611       214.83731      256.17155      304.16352      276.31916      331.7581       55502.861      15717.018      28           
    124000  -2479.59        19.897239     -2499.4872      1.360611       214.68861      237.94683      294.37624      287.77891      377.14017      57368.197      16245.234      31           
    125000  -2477.6514      19.604736     -2497.2561      1.360611       211.53255      221.06063      284.45135      296.93066      347.36775      54258.263      15364.579      31           
    126000  -2480.0994      21.113868     -2501.2133      1.360611       227.81589      230.80106      332.8878       285.01021      343.04614      56465.212      15989.531      28           
    127000  -2478.5552      21.215599     -2499.7708      1.360611       228.91355      238.74547      303.72282      327.00021      381.29887      54890.618      15543.646      31           
    128000  -2479.3525      20.212868     -2499.5654      1.360611       218.09422      321.32486      301.66843      286.8521       308.77048      57249.229      16211.545      30           
    129000  -2478.2758      21.067055     -2499.3429      1.360611       227.31078      305.84946      302.21072      329.12279      274.08444      55851.204      15815.66       30           
    130000  -2479.5256      19.898694     -2499.4243      1.360611       214.70431      365.04712      294.58727      286.49272      280.57978      57153.943      16184.563      20           
    131000  -2478.4427      21.261948     -2499.7047      1.360611       229.41365      253.76067      298.05493      348.61625      283.19708      55878.056      15823.264      22           
    132000  -2479.4165      21.092151     -2500.5087      1.360611       227.58156      316.66351      304.39821      323.77155      287.42206      55889.547      15826.518      27           
    133000  -2480.5594      20.466434     -2501.0258      1.360611       220.83016      215.33256      316.64523      290.29658      301.83179      56547.33       16012.785      25           
    134000  -2478.3441      20.924257     -2499.2684      1.360611       225.77001      290.16487      308.33018      312.94971      298.08991      55149.598      15616.983      30           
    135000  -2480.0748      20.718993     -2500.7938      1.360611       223.55524      306.16967      313.97543      290.46841      315.5192       56989.421      16137.974      25           
    136000  -2478.112       20.900559     -2499.0126      1.360611       225.51431      260.50165      293.89995      334.45939      310.28014      54946.33       15559.422      26           
    137000  -2479.4664      20.777958     -2500.2443      1.360611       224.19146      330.13921      305.74284      302.22503      315.0827       56742.161      16067.956      23           
    138000  -2479.3702      20.702728     -2500.0729      1.360611       223.37974      268.18519      302.01269      312.56163      311.03386      55076.076      15596.163      22           
    139000  -2478.7853      21.269987     -2500.0552      1.360611       229.50039      335.51825      307.77982      318.11778      317.49683      56894.84       16111.191      26           
    140000  -2478.2954      20.52203      -2498.8175      1.360611       221.43003      300.76316      302.95093      298.03835      322.1169       56463.726      15989.111      24           
    141000  -2479.6162      21.213584     -2500.8298      1.360611       228.89181      365.09085      282.55554      344.95998      336.78942      55055.392      15590.306      25           
    142000  -2479.5466      20.349037     -2499.8956      1.360611       219.56346      331.1989       291.98493      302.94795      322.59926      57089.048      16166.186      25           
    143000  -2481.2928      19.570663     -2500.8635      1.360611       211.1649       328.48195      286.56048      282.57573      306.67481      55131.345      15611.814      25           
    144000  -2479.9544      20.117914     -2500.0723      1.360611       217.06967      341.72084      295.42505      285.48645      332.77108      56918.261      16117.824      24           
    145000  -2479.7272      19.90358      -2499.6308      1.360611       214.75704      183.43583      295.00604      294.08009      346.43731      54840.58       15529.476      25           
    146000  -2479.5134      20.191522     -2499.7049      1.360611       217.8639       237.84981      283.77018      311.22268      358.43033      56152.433      15900.96       21           
    147000  -2477.8228      21.512383     -2499.3352      1.360611       232.11581      238.35416      306.3848       332.55514      361.87719      55305.923      15661.25       24           
    148000  -2479.409       19.497895     -2498.9069      1.360611       210.37975      185.77247      286.48694      286.13941      362.6601       56468.034      15990.331      24           
    149000  -2479.4234      20.093474     -2499.5169      1.360611       216.80597      234.94476      302.56265      284.03991      339.31239      54846.138      15531.05       22           
    150000  -2480.3786      19.664882     -2500.0434      1.360611       212.18152      233.8764       306.79295      260.69426      339.24551      56023.208      15864.367      22           
    151000  -2479.6746      19.969302     -2499.6439      1.360611       215.46617      322.80733      284.47778      299.94         318.78185      55966.279      15848.246      27           
    152000  -2480.0463      20.843685     -2500.89        1.360611       224.90064      298.88144      302.3226       312.02554      327.74378      55117.706      15607.951      31           
    153000  -2478.5559      20.385313     -2498.9412      1.360611       219.95487      317.03173      308.01705      284.55238      313.34034      55960.297      15846.552      27           
    154000  -2479.5958      20.928145     -2500.524       1.360611       225.81196      405.65147      315.59314      278.15648      322.88513      54727.857      15497.556      35           
    155000  -2479.2713      20.973719     -2500.245       1.360611       226.30369      309.56225      321.40127      281.36684      359.87353      56210.886      15917.513      26           
    156000  -2479.2349      20.522358     -2499.7573      1.360611       221.43357      301.3446       303.74736      287.98174      370.16198      54554.546      15448.479      26           
    157000  -2477.5739      20.52405      -2498.098       1.360611       221.45183      287.97419      291.61968      314.69625      327.08943      57159.912      16186.253      22           
    158000  -2479.2223      20.06503      -2499.2874      1.360611       216.49906      277.90658      308.07975      275.31222      314.37271      54932.598      15555.534      21           
    159000  -2479.9074      19.575512     -2499.4829      1.360611       211.21723      264.60531      290.19935      283.13407      316.64752      55596.053      15743.407      24           
    160000  -2478.5488      21.172282     -2499.721       1.360611       228.44617      378.21312      325.09263      284.73222      311.26176      56294.558      15941.207      24           
    161000  -2480.2306      20.775301     -2501.0059      1.360611       224.16279      277.93401      319.59533      289.51921      310.99948      55649.56       15758.559      28           
    162000  -2480.2379      20.51412      -2500.752       1.360611       221.34468      308.45035      317.20621      279.20676      303.74821      56473.924      15991.998      27           
    163000  -2480.7409      19.756249     -2500.4971      1.360611       213.16735      269.00614      294.54397      287.20663      301.86199      53915.724      15267.581      27           
    164000  -2479.8966      20.348576     -2500.2452      1.360611       219.55849      289.88109      297.74717      302.53224      310.06963      57468.104      16273.525      28           
    165000  -2479.9837      19.639253     -2499.6229      1.360611       211.90499      268.38148      272.08284      313.02422      317.50836      54525.566      15440.272      29           
    166000  -2478.397       21.028027     -2499.425       1.360611       226.88968      285.36891      304.2663       318.61105      324.67209      56353.511      15957.9        27           
    167000  -2478.4339      21.237531     -2499.6714      1.360611       229.15019      263.02991      310.20096      323.40947      311.50425      55482.636      15711.291      24           
    168000  -2480.4421      19.643734     -2500.0858      1.360611       211.95333      278.31077      294.94821      278.89528      309.94763      55957.145      15845.66       25           
    169000  -2480.2306      19.570599     -2499.8012      1.360611       211.16422      238.33919      299.49005      273.0295       315.66561      55980.379      15852.239      25           
    170000  -2478.345       21.053498     -2499.3985      1.360611       227.16451      360.4422       309.74988      309.25777      285.63076      55693.613      15771.034      26           
    171000  -2478.8701      20.277372     -2499.1475      1.360611       218.7902       337.88348      308.35166      281.66531      290.92693      56555.129      16014.994      23           
    172000  -2478.5718      20.987491     -2499.5593      1.360611       226.45229      335.74535      300.37589      324.49359      285.69473      55325.399      15666.765      21           
    173000  -2479.2632      20.286812     -2499.55        1.360611       218.89206      389.57635      287.20362      299.18612      318.20186      56890.448      16109.948      28           
    174000  -2479.2034      20.186335     -2499.3897      1.360611       217.80793      377.046        272.43628      317.17146      326.63582      54696.245      15488.604      26           
    175000  -2480.1077      19.286874     -2499.3946      1.360611       208.10286      326.78557      275.13366      278.68832      356.7524       56883.859      16108.082      25           
    176000  -2479.4335      19.925336     -2499.3588      1.360611       214.99178      275.74702      281.40605      302.47832      357.44021      54984.664      15570.278      25           
    177000  -2481.1203      20.114615     -2501.235       1.360611       217.03408      311.5972       274.73547      319.58629      332.71224      56740.276      16067.423      29           
    178000  -2478.5984      20.644667     -2499.2431      1.360611       222.75327      301.57084      303.86164      302.92609      315.08603      55849.712      15815.237      24           
    179000  -2479.6939      20.677706     -2500.3716      1.360611       223.10975      239.27536      311.33365      300.16145      318.6295       56140.749      15897.652      24           
    180000  -2480.2571      20.019527     -2500.2766      1.360611       216.00809      304.23026      304.42533      276.72263      311.08818      56409.592      15973.781      21           
    181000  -2479.2698      20.080095     -2499.3499      1.360611       216.66161      265.63253      290.83017      299.77026      334.3366       55169.354      15622.577      26           
    182000  -2479.7378      20.030813     -2499.7686      1.360611       216.12987      356.73808      273.12613      313.37819      328.6768       56995.447      16139.681      25           
    183000  -2480.3661      19.701681     -2500.0677      1.360611       212.57857      251.69117      293.04132      282.61774      338.70568      54371.431      15396.625      29           
    184000  -2479.6977      20.235329     -2499.933       1.360611       218.33657      261.18132      295.12525      298.26357      347.36967      56539.964      16010.699      28           
    185000  -2479.5293      19.454882     -2498.9842      1.360611       209.91564      342.28023      288.71342      268.30144      331.7932       54787.295      15514.387      23           
    186000  -2479.193       21.359423     -2500.5524      1.360611       230.46539      309.84545      321.5628       302.07524      330.40025      57177.884      16191.342      23           
    187000  -2477.7438      20.098822     -2497.8426      1.360611       216.86367      267.38643      302.55539      283.10868      322.74968      55803.704      15802.209      17           
    188000  -2479.6435      19.860806     -2499.5043      1.360611       214.29551      275.23432      299.17149      279.219        318.56817      56485.238      15995.202      21           
    189000  -2478.5755      21.019934     -2499.5955      1.360611       226.80235      265.57486      301.78442      318.89606      345.98635      56651.301      16042.227      22           
    190000  -2478.9023      21.388604     -2500.2909      1.360611       230.78026      310.28895      317.26706      306.64781      347.32501      55265.971      15649.937      27           
    191000  -2479.7954      19.162524     -2498.9579      1.360611       206.76114      236.16732      274.26145      288.14631      349.68454      57159.335      16186.09       25           
    192000  -2479.6642      20.980377     -2500.6445      1.360611       226.37554      320.18623      315.22946      293.3737       337.96671      54423.867      15411.474      27           
    193000  -2480.2059      20.094774     -2500.3007      1.360611       216.82         290.09043      292.8604       292.42723      344.57379      57338.89       16236.935      27           
    194000  -2478.4999      21.075331     -2499.5753      1.360611       227.40007      335.91023      294.42824      327.34024      323.77029      54536.165      15443.274      32           
    195000  -2479.7723      20.662034     -2500.4344      1.360611       222.94066      351.88675      302.81503      293.71337      339.02116      56378.602      15965.006      30           
    196000  -2478.3387      21.110059     -2499.4488      1.360611       227.77479      309.96263      311.15499      303.32015      356.99487      55400.493      15688.03       31           
    197000  -2480.259       19.275255     -2499.5342      1.360611       207.97749      260.62626      290.73177      267.28965      360.24947      55278.274      15653.42       36           
    198000  -2480.7994      19.960941     -2500.7604      1.360611       215.37595      292.66506      304.86836      275.62129      313.45586      55781.449      15795.907      33           
    199000  -2480.6993      20.479699     -2501.179       1.360611       220.97329      217.79259      291.4391       320.93488      344.43688      54446.689      15417.937      27           
    200000  -2481.0972      18.923065     -2500.0202      1.360611       204.17741      190.13952      280.11063      276.55357      341.9722       57023.959      16147.755      25           
    201000  -2479.8909      19.599424     -2499.4904      1.360611       211.47524      241.66096      274.37494      309.94053      328.58895      54692.539      15487.555      30           
    202000  -2479.0672      21.871572     -2500.9388      1.360611       235.99142      257.12341      323.68832      324.00912      353.28891      57430.514      16262.881      28           
    203000  -2480.2005      20.43331      -2500.6338      1.360611       220.47276      322.80624      304.58908      285.04267      346.8567       55805.172      15802.625      28           
    204000  -2478.9703      20.641791     -2499.6121      1.360611       222.72224      287.02376      285.11433      325.51329      372.17786      57070.252      16160.864      33           
    205000  -2480.5682      20.618401     -2501.1866      1.360611       222.46986      343.46074      298.41876      296.63114      361.37932      54618.321      15466.538      31           
    206000  -2480.1949      19.968253     -2500.1631      1.360611       215.45485      263.03575      290.48914      295.06614      369.23018      55521.183      15722.206      35           
    207000  -2478.5579      21.242355     -2499.8003      1.360611       229.20225      253.44335      330.31718      290.18057      377.80303      57013.977      16144.928      37           
    208000  -2480.027       21.61712      -2501.6442      1.360611       233.24591      281.88051      326.44172      303.99628      406.82734      55596.044      15743.405      39           
    209000  -2478.4477      21.569712     -2500.0174      1.360611       232.73439      316.77504      303.37026      331.90929      377.85051      56658.465      16044.256      40           
    210000  -2481.267       20.147731     -2501.4147      1.360611       217.39139      316.81247      267.81564      323.67587      381.42902      54386.716      15400.954      31           
    211000  -2480.0637      19.615316     -2499.679       1.360611       211.6467       302.03303      276.05074      292.45575      369.87239      57525.468      16289.769      33           
    212000  -2480.8041      19.968824     -2500.7729      1.360611       215.46101      293.1747       291.61828      285.59844      373.98436      54563.162      15450.919      31           
    213000  -2480.3784      19.46967      -2499.8481      1.360611       210.0752       291.42371      277.40508      281.79442      385.87861      56746.519      16069.19       27           
    214000  -2477.9841      21.831903     -2499.816       1.360611       235.5634       345.66789      310.23201      325.5568       374.98382      56633.723      16037.249      24           
    215000  -2480.6861      19.597508     -2500.2836      1.360611       211.45456      337.69531      280.45788      278.7657       380.07122      55698.029      15772.284      29           
    216000  -2479.7846      21.329328     -2501.1139      1.360611       230.14068      309.984        295.52786      332.6497       373.32522      56681.864      16050.882      28           
    217000  -2480.9489      19.188142     -2500.1371      1.360611       207.03755      222.02539      289.93186      266.95191      354.20591      54976.701      15568.023      26           
    218000  -2480.2483      20.230288     -2500.4786      1.360611       218.28217      282.53806      286.29077      304.1113       375.88855      57672.811      16331.493      28           
    219000  -2478.9398      21.183597     -2500.1234      1.360611       228.56825      280.36226      285.7699       342.79261      384.99915      54672.586      15481.905      27           
    220000  -2478.2104      21.193207     -2499.4037      1.360611       228.67195      341.76119      314.80973      295.2622       365.64916      57533.203      16291.96       30           
    221000  -2478.9845      20.858744     -2499.8432      1.360611       225.06313      392.05223      266.5784       341.3313       382.67022      56022.911      15864.283      31           
    222000  -2479.6991      20.98993      -2500.689       1.360611       226.47862      361.34889      283.02966      328.75933      378.82117      56854.428      16099.748      27           
    223000  -2479.4645      20.842108     -2500.3066      1.360611       224.88363      243.23276      309.75753      302.73136      361.92704      55529.068      15724.439      27           
    224000  -2479.7249      20.293067     -2500.0179      1.360611       218.95955      250.45257      303.11613      287.95032      369.29139      55997.869      15857.192      29           
    225000  -2478.8542      20.629664     -2499.4839      1.360611       222.59138      277.7697       298.68988      310.35976      328.82236      56632.877      16037.01       26           
    226000  -2478.5614      21.607211     -2500.1686      1.360611       233.139        301.22057      305.22995      339.33939      321.29967      54219.576      15353.624      24           
    227000  -2480.3455      19.631882     -2499.9774      1.360611       211.82545      261.10045      299.20613      278.48911      290.9498       58390.902      16534.839      28           
    228000  -2479.0752      20.893964     -2499.9692      1.360611       225.44315      272.83553      296.8573       333.59356      283.3019       53889.014      15260.017      31           
    229000  -2479.5795      20.69458      -2500.2741      1.360611       223.29182      228.94514      310.56232      311.87412      289.89139      57023.299      16147.568      32           
    230000  -2480.7362      20.556087     -2501.2923      1.360611       221.7975       220.18304      305.09408      308.16175      322.37571      55378.736      15681.869      28           
    231000  -2480.3887      19.569622     -2499.9583      1.360611       211.15367      230.7525       293.25         284.91918      316.90812      56676.668      16049.411      29           
    232000  -2479.4228      20.349621     -2499.7724      1.360611       219.56976      294.39319      286.06928      320.69814      302.80048      55822.389      15807.5        31           
    233000  -2479.8648      19.611736     -2499.4765      1.360611       211.60808      321.20701      297.02074      270.1419       298.58303      55396.404      15686.872      34           
    234000  -2478.6515      20.412529     -2499.064       1.360611       220.24853      260.32659      302.84255      302.93902      310.62581      56857.519      16100.623      32           
    235000  -2478.3441      21.067893     -2499.412       1.360611       227.31982      288.34713      318.50267      307.43048      274.83457      54921.925      15552.511      33           
    236000  -2480.1312      19.64325      -2499.7744      1.360611       211.94811      215.05725      299.45784      285.84876      291.09763      57942.5        16407.863      30           
    237000  -2478.7684      20.376135     -2499.1446      1.360611       219.85584      241.79237      302.6857       305.8813       297.23047      54000.959      15291.717      29           
    238000  -2479.3466      21.072033     -2500.4187      1.360611       227.36449      293.898        309.07409      316.90376      298.88831      58550.223      16579.954      26           
    239000  -2479.4515      19.918755     -2499.3702      1.360611       214.92078      307.38783      295.63657      281.91517      331.61589      54715.272      15493.992      28           
    240000  -2478.0414      22.372708     -2500.4142      1.360611       241.3986       284.00664      352.50275      302.54735      335.25612      56990.154      16138.182      31           
    241000  -2479.3901      20.579438     -2499.9695      1.360611       222.04946      317.91132      312.46744      280.24501      345.71743      55158.692      15619.558      30           
    242000  -2478.2372      21.728653     -2499.9658      1.360611       234.44934      230.1601       314.77124      345.3503       316.99436      55887.495      15825.937      36           
    243000  -2480.289       19.63859      -2499.9276      1.360611       211.89783      293.43079      286.40703      290.22786      307.90869      56960.364      16129.746      30           
    244000  -2478.7086      19.992934     -2498.7015      1.360611       215.72116      370.47241      280.13204      310.80444      262.90773      55592.687      15742.454      28           
    245000  -2479.6942      20.024342     -2499.7185      1.360611       216.06005      255.04554      291.43149      309.06009      278.36163      58053.827      16439.388      28           
    246000  -2480.3117      19.769194     -2500.0809      1.360611       213.30703      268.4415       299.74162      283.42391      289.33347      52675.854      14916.48       33           
    247000  -2479.1493      20.246075     -2499.3953      1.360611       218.45251      349.60826      293.41366      297.60503      297.10603      58484.39       16561.312      31           
    248000  -2480.1159      19.629666     -2499.7456      1.360611       211.80154      334.36917      298.31483      267.87227      293.53847      54045.241      15304.256      32           
    249000  -2478.649       20.745324     -2499.3943      1.360611       223.83935      347.14168      310.1148       295.98439      289.46897      56491.095      15996.861      28           
    250000  -2478.5152      21.442581     -2499.9578      1.360611       231.36265      289.77806      322.607        301.93134      353.9701       56225.395      15921.621      24           
    251000  -2478.9159      21.401587     -2500.3175      1.360611       230.92034      331.38081      316.55237      307.28228      338.26382      56287.122      15939.101      24           
    252000  -2479.8938      20.931012     -2500.8248      1.360611       225.8429       334.54911      308.11574      302.28719      324.49786      56677.807      16049.733      29           
    253000  -2478.628       21.17364      -2499.8016      1.360611       228.46081      369.71738      313.3496       299.51738      324.10364      53329.076      15101.456      28           
    254000  -2477.0354      21.151694     -2498.1871      1.360611       228.22402      350.08499      321.78401      288.19791      323.57624      57777.516      16361.143      35           
    255000  -2477.0571      21.680087     -2498.7372      1.360611       233.92532      243.73367      333.83189      299.5252       384.31056      53416.56       15126.23       31           
    256000  -2479.9324      21.175366     -2501.1077      1.360611       228.47944      258.88113      307.3941       315.18338      368.1246       57624.36       16317.773      26           
    257000  -2477.164       22.161545     -2499.3256      1.360611       239.12019      302.72714      335.47721      307.20307      372.12012      53459.205      15138.306      24           
    258000  -2478.1085      20.909041     -2499.0175      1.360611       225.60583      299.22191      310.42893      290.55295      385.83019      56549.736      16013.467      25           
    259000  -2477.0812      21.544053     -2498.6253      1.360611       232.45752      324.52011      315.61313      305.0599       383.00838      55632.683      15753.78       23           
    260000  -2478.7028      20.634361     -2499.3372      1.360611       222.64207      327.53425      281.03974      317.60752      380.66452      55116.817      15607.7        21           
    261000  -2479.0013      21.166662     -2500.168       1.360611       228.38553      338.08027      301.22552      318.64358      339.41646      56482.516      15994.432      26           
    262000  -2479.0201      21.401431     -2500.4215      1.360611       230.91865      246.75968      312.4114       321.58604      345.03173      54932.745      15555.575      23           
    263000  -2478.0338      20.860437     -2498.8942      1.360611       225.0814       270.07197      313.09145      292.5546       358.59639      57462.443      16271.922      22           
    264000  -2479.5696      20.851787     -2500.4214      1.360611       224.98807      319.16989      298.64337      308.54735      354.77606      54144.195      15332.278      27           
    265000  -2480.8655      18.896056     -2499.7615      1.360611       203.88598      208.21118      287.26275      250.98791      390.7393       57511.482      16285.809      23           
    266000  -2479.383       20.89792      -2500.281       1.360611       225.48584      280.409        306.91844      296.64486      385.27245      55317.571      15664.548      23           
    267000  -2478.1888      21.637165     -2499.826       1.360611       233.4622       330.49006      306.03698      327.66308      363.31546      57663.75       16328.927      23           
    268000  -2479.0102      20.296737     -2499.307       1.360611       218.99915      325.22765      294.31767      290.41209      357.57708      54934.532      15556.081      26           
    269000  -2479.0601      20.478548     -2499.5387      1.360611       220.96087      284.73112      309.00321      277.00953      380.16542      55176.798      15624.685      24           
    270000  -2479.0488      21.00214      -2500.0509      1.360611       226.61035      433.32202      298.85919      304.29556      347.99747      57093.904      16167.561      21           
    271000  -2479.8188      20.55713      -2500.3759      1.360611       221.80876      343.37684      312.72133      275.30063      345.49178      55320.743      15665.447      20           
    272000  -2479.1537      20.07558      -2499.2293      1.360611       216.6129       340.05152      285.04592      296.64745      345.94954      57804.223      16368.706      20           
    273000  -2478.024       20.502447     -2498.5264      1.360611       221.21874      293.80059      305.87818      285.94872      359.56859      54285.414      15372.267      23           
    274000  -2478.2355      21.486197     -2499.7217      1.360611       231.83327      233.21387      332.87749      293.1674       362.40042      57088.987      16166.169      23           
    275000  -2479.8652      19.838242     -2499.7034      1.360611       214.05205      226.55779      282.54536      297.39129      394.41728      55871.069      15821.285      27           
    276000  -2479.7846      21.336517     -2501.1212      1.360611       230.21824      335.0911       317.49925      292.72295      399.97847      56080.907      15880.706      33           
    277000  -2478.1961      22.167744     -2500.3639      1.360611       239.18708      419.54506      311.7544       320.66008      407.85491      55687.388      15769.271      34           
    278000  -2476.7522      22.373833     -2499.126       1.360611       241.41074      402.73207      319.76552      322.82512      391.05648      55804.916      15802.552      32           
    279000  -2477.4861      21.633936     -2499.1201      1.360611       233.42736      329.8067       312.70334      319.86769      359.27323      56929.495      16121.005      33           
    280000  -2477.2673      21.6249       -2498.8922      1.360611       233.32985      386.14848      312.44687      309.47655      353.83891      54898.135      15545.775      36           
    281000  -2479.3895      19.437521     -2498.827       1.360611       209.72832      321.96106      282.92497      271.96337      369.43536      56843.263      16096.586      30           
    282000  -2477.9342      20.712505     -2498.6467      1.360611       223.48523      291.81083      306.59526      295.78321      363.60763      54219.16       15353.506      32           
    283000  -2477.0422      21.883312     -2498.9255      1.360611       236.11809      296.10416      328.94599      313.02854      346.45388      56648.762      16041.508      31           
    284000  -2476.8011      20.885914     -2497.687       1.360611       225.35629      250.30271      305.64115      307.53119      363.74264      55106.983      15604.915      25           
    285000  -2475.5475      22.56256      -2498.1101      1.360611       243.44709      325.11751      329.0645       325.63975      399.26824      56642.563      16039.753      24           
    286000  -2478.5357      20.84727      -2499.3829      1.360611       224.93933      290.65653      300.0189       299.17901      427.6051       56666.997      16046.672      31           
    287000  -2478.1345      21.947793     -2500.0823      1.360611       236.81383      414.99823      303.53285      319.65632      432.94436      55841.143      15812.811      28           
    288000  -2478.2714      22.258263     -2500.5297      1.360611       240.16376      320.03651      316.44046      328.23569      433.34002      56505.916      16001.058      31           
    289000  -2479.6227      20.888781     -2500.5115      1.360611       225.38723      329.31508      308.28299      284.05028      425.21912      54609.081      15463.922      28           
    290000  -2479.1977      19.632167     -2498.8299      1.360611       211.82853      270.31161      284.4462       281.06376      415.27749      57713.546      16343.028      35           
    291000  -2477.6005      21.281169     -2498.8817      1.360611       229.62104      346.53733      306.71303      313.41158      343.96281      53716.792      15211.248      33           
    292000  -2476.9569      21.51046      -2498.4673      1.360611       232.09507      414.34678      318.93964      294.49414      327.28613      56225.519      15921.656      36           
    293000  -2478.8091      20.420728     -2499.2298      1.360611       220.337        419.82029      300.44096      282.67638      287.95334      56643.958      16040.148      34           
    294000  -2478.1907      20.868715     -2499.0594      1.360611       225.17072      358.43915      311.04212      293.96862      308.83501      57388.189      16250.895      31           
    295000  -2479.2454      20.553742     -2499.7991      1.360611       221.7722       315.54584      304.20347      294.94264      325.89896      55380.797      15682.452      30           
    296000  -2479.5642      20.053973     -2499.6182      1.360611       216.37976      317.37272      289.31304      295.94215      326.37351      56005.876      15859.459      29           
    297000  -2478.8132      21.356747     -2500.17        1.360611       230.43652      320.24506      318.38626      301.56146      358.92546      56491.896      15997.088      32           
    298000  -2480.1179      19.380748     -2499.4986      1.360611       209.11574      297.69722      280.2998       282.88194      334.56339      55962.563      15847.194      33           
    299000  -2477.3718      21.351286     -2498.7231      1.360611       230.37759      281.7289       301.83848      336.07033      324.85866      57793.01       16365.531      26           
    300000  -2478.9191      20.784188     -2499.7033      1.360611       224.25869      306.99532      310.93259      299.68785      303.6679       54079.054      15313.831      30           
    301000  -2477.2248      20.82023      -2498.045       1.360611       224.64757      294.00954      313.24168      302.16367      291.42521      57054.224      16156.325      31           
    302000  -2479.1226      20.060303     -2499.1829      1.360611       216.44806      267.21712      295.45737      302.5316       281.06534      54924.325      15553.191      28           
    303000  -2480.4511      20.499518     -2500.9506      1.360611       221.18713      319.46795      291.09635      315.80154      301.0376       56754.634      16071.488      30           
    304000  -2479.7474      20.054771     -2499.8022      1.360611       216.38837      272.83714      293.23627      297.82224      322.60514      55329.739      15667.994      29           
    305000  -2479.2795      20.64365      -2499.9231      1.360611       222.7423       282.94862      310.55962      290.08296      347.27819      55728.799      15780.998      29           
    306000  -2481.3663      18.917416     -2500.2837      1.360611       204.11645      251.64389      281.05164      265.87936      345.72255      56241.493      15926.18       24           
    307000  -2478.8126      20.861534     -2499.6741      1.360611       225.09324      245.52091      318.17505      292.30813      351.56715      55631.721      15753.508      27           
    308000  -2477.0681      21.095191     -2498.1633      1.360611       227.61437      308.24912      318.86972      293.73254      341.57899      58833.38       16660.137      27           
    309000  -2476.1137      21.55704      -2497.6707      1.360611       232.59765      266.33204      313.67873      329.82569      320.5137       54350.113      15390.588      26           
    310000  -2478.703       20.793623     -2499.4967      1.360611       224.36049      301.89286      307.73871      302.76921      317.64465      56552.159      16014.153      23           
    311000  -2478.8231      20.234453     -2499.0575      1.360611       218.32711      347.42847      279.29618      316.97472      311.49361      54690.717      15487.039      25           
    312000  -2479.3428      20.51092      -2499.8537      1.360611       221.31016      297.49714      312.4834       288.75089      296.35274      57814.559      16371.633      21           
    313000  -2480.1557      19.926604     -2500.0823      1.360611       215.00547      388.53904      284.07262      293.15004      303.06123      56019.298      15863.26       26           
    314000  -2479.6018      21.460907     -2501.0627      1.360611       231.56039      330.87207      317.66488      308.24577      337.17209      55904.167      15830.658      24           
    315000  -2478.9419      20.480424     -2499.4223      1.360611       220.9811       269.89466      299.60529      302.21384      335.11609      57893.856      16394.088      23           
    316000  -2478.3324      21.68062      -2500.013       1.360611       233.93106      278.94049      321.43488      323.29503      312.25588      54523.601      15439.716      26           
    317000  -2479.3122      19.348616     -2498.6608      1.360611       208.76905      270.506        283.9633       278.9728       340.08796      58122.645      16458.875      28           
    318000  -2479.1591      20.054401     -2499.2135      1.360611       216.38437      261.12857      297.32717      295.06314      315.46995      54692.986      15487.682      31           
    319000  -2480.6396      20.006157     -2500.6457      1.360611       215.86383      266.67476      277.28129      317.92846      339.53503      58193.795      16479.023      30           
    320000  -2480.2437      19.679881     -2499.9236      1.360611       212.34335      261.52523      299.54429      272.12865      332.84039      54236.714      15358.477      27           
    321000  -2479.0142      20.341669     -2499.3559      1.360611       219.48396      327.85508      289.10985      301.12237      355.75114      57134.7        16179.114      25           
    322000  -2479.0663      20.244618     -2499.3109      1.360611       218.43679      308.55473      281.89746      307.73483      365.55871      55737.414      15783.437      23           
    323000  -2479.1026      21.003758     -2500.1064      1.360611       226.62781      279.58914      311.7071       294.3068       385.17148      55806.62       15803.035      22           
    324000  -2478.4734      20.874484     -2499.3479      1.360611       225.23297      313.39629      285.32018      321.84709      391.93708      56781.786      16079.177      25           
    325000  -2478.6174      20.503453     -2499.1209      1.360611       221.22959      331.27557      293.17021      293.30075      393.33584      54172.116      15340.184      24           
    326000  -2476.1422      22.113199     -2498.2554      1.360611       238.59854      264.15058      327.27096      318.35711      385.19987      57834.658      16377.324      22           
    327000  -2479.4965      20.098957     -2499.5954      1.360611       216.86513      318.44584      295.38687      280.3965       378.08588      53939.722      15274.376      30           
    328000  -2479.1704      20.139891     -2499.3103      1.360611       217.3068       290.81803      287.57685      296.7441       379.19562      57416.365      16258.874      27           
    329000  -2480.0271      19.225527     -2499.2527      1.360611       207.44093      193.02321      277.66886      284.25102      395.52133      54105.631      15321.357      28           
    330000  -2478.2524      20.717429     -2498.9698      1.360611       223.53836      274.42143      314.24698      282.91035      384.99441      57425.566      16261.48       28           
    331000  -2479.1355      20.574984     -2499.7105      1.360611       222.0014       256.39906      287.09156      316.78675      404.5704       54005.636      15293.041      30           
    332000  -2477.6928      21.346921     -2499.0398      1.360611       230.3305       363.82865      297.66548      320.10015      384.30117      54729.837      15498.117      36           
    333000  -2479.2267      20.072391     -2499.2991      1.360611       216.57848      356.10509      258.09011      328.3237       382.20327      56951.144      16127.135      34           
    334000  -2478.3933      21.278788     -2499.6721      1.360611       229.59535      359.81692      288.08455      323.6841       425.89525      55400.994      15688.172      25           
    335000  -2479.1765      21.049732     -2500.2262      1.360611       227.12387      309.14178      284.17055      330.11638      416.86899      57230.203      16206.158      32           
    336000  -2478.3978      21.448449     -2499.8462      1.360611       231.42597      302.18204      278.48483      355.63218      419.52437      53738.305      15217.34       31           
    337000  -2478.6734      20.921491     -2499.5949      1.360611       225.74016      244.29383      302.49082      307.15984      414.10788      58043.57       16436.483      27           
    338000  -2480.4965      18.992622     -2499.4891      1.360611       204.92792      236.73381      276.38836      269.48986      416.89289      54764.252      15507.862      32           
    339000  -2480.5354      19.936175     -2500.4716      1.360611       215.10873      254.55249      293.19525      280.1657       408.29724      56291.608      15940.371      28           
    340000  -2480.8801      19.286613     -2500.1667      1.360611       208.10004      238.89255      275.60462      279.72405      438.23538      56104.101      15887.274      32           
    341000  -2480.5034      20.052255     -2500.5556      1.360611       216.36122      254.46173      292.08201      281.63019      479.8446       54756.338      15505.621      36           
    342000  -2479.9827      20.24066      -2500.2234      1.360611       218.39409      271.72131      291.31157      283.84816      494.86817      57221.685      16203.746      34           
    343000  -2479.2951      21.119733     -2500.4148      1.360611       227.87917      224.47319      301.43885      316.31897      472.84628      54287.212      15372.777      33           
    344000  -2480.0801      21.6771       -2501.7572      1.360611       233.89308      319.25555      304.93265      323.92691      425.7798       57522.092      16288.813      30           
    345000  -2479.672       20.359889     -2500.0319      1.360611       219.68055      376.64136      284.18436      303.4201       345.17561      55384.628      15683.537      34           
    346000  -2481.0651      19.007024     -2500.0721      1.360611       205.08332      272.97515      280.16692      272.14647      340.44888      56719.85       16061.639      32           
    347000  -2479.9878      20.355433     -2500.3432      1.360611       219.63248      274.66017      298.3876       299.93377      349.88952      54924.748      15553.311      35           
    348000  -2479.1699      19.326712     -2498.4966      1.360611       208.5327       239.93641      272.89455      300.85802      348.31431      56481.165      15994.049      35           
    349000  -2479.1458      20.768537     -2499.9143      1.360611       224.08981      313.29038      294.09445      316.47531      343.46477      56333.912      15952.351      34           
    350000  -2479.6353      20.959855     -2500.5952      1.360611       226.1541       302.89664      320.19847      286.95879      345.97624      55011.938      15578.001      30           
    351000  -2479.7114      19.416685     -2499.1281      1.360611       209.50351      274.11603      280.36957      287.1839       342.31304      57225.184      16204.736      30           
    352000  -2478.5026      20.877413     -2499.38        1.360611       225.26457      316.83384      294.35762      324.46266      313.46489      53966.92       15282.078      29           
    353000  -2479.3085      20.362866     -2499.6714      1.360611       219.71268      329.52229      276.08142      329.30056      310.7221       57437.784      16264.94       28           
    354000  -2478.5269      19.657725     -2498.1846      1.360611       212.1043       346.82425      283.91793      285.50441      312.02195      54393.405      15402.848      30           
    355000  -2477.6249      21.227375     -2498.8523      1.360611       229.04061      284.02621      313.25905      311.48863      340.86037      57324.938      16232.984      28           
    356000  -2478.4233      21.097262     -2499.5206      1.360611       227.63672      315.60868      307.9352       310.06284      334.97472      55798.64       15800.775      31           
    357000  -2479.6295      19.94889      -2499.5783      1.360611       215.24592      249.26067      285.06946      298.9931       377.64101      56152.378      15900.945      29           
    358000  -2480.2773      20.345593     -2500.6229      1.360611       219.5263       341.19288      297.57438      278.79936      404.41723      55735.355      15782.854      28           
    359000  -2478.4877      20.556403     -2499.0441      1.360611       221.80091      269.98239      296.21043      297.23169      410.80212      55727.404      15780.603      27           
    360000  -2479.1941      20.5472       -2499.7413      1.360611       221.70162      282.23995      302.90267      290.93843      389.16452      55770.918      15792.925      33           
    361000  -2478.1578      21.321175     -2499.479       1.360611       230.0527       459.64236      303.10958      304.73368      333.43691      54743.627      15502.022      30           
    362000  -2478.0154      20.864313     -2498.8797      1.360611       225.12322      409.52834      317.0758       271.88879      342.22407      57713.026      16342.881      29           
    363000  -2475.4287      22.14285      -2497.5716      1.360611       238.91847      281.54353      329.20348      323.62876      343.08838      54891.192      15543.809      23           
    364000  -2477.2193      21.581558     -2498.8009      1.360611       232.86221      440.30312      302.92283      317.14606      353.0926       56246.406      15927.571      25           
    365000  -2479.8035      20.434333     -2500.2378      1.360611       220.48379      312.62968      292.35267      297.20272      367.91925      53763.078      15224.355      19           
    366000  -2478.4528      20.585451     -2499.0383      1.360611       222.11434      349.47477      286.79823      304.50833      386.002        56097.181      15885.314      20           
    367000  -2479.1458      19.34537      -2498.4912      1.360611       208.73402      338.24719      282.00017      263.8248       376.33988      55718.19       15777.994      25           
    368000  -2479.573       19.340118     -2498.9131      1.360611       208.67736      283.19675      270.81597      291.38245      359.78964      56670.528      16047.672      24           
    369000  -2478.7518      21.530131     -2500.2819      1.360611       232.30731      336.76341      300.98835      330.09562      359.87795      55136.393      15613.243      26           
    370000  -2477.5942      22.185613     -2499.7798      1.360611       239.37988      327.34544      322.11668      326.94754      364.70023      55703.901      15773.947      25           
    371000  -2478.7513      20.198252     -2498.9495      1.360611       217.93651      303.00371      302.12155      279.62705      353.63437      56469.093      15990.631      25           
    372000  -2479.1882      20.188277     -2499.3764      1.360611       217.82888      285.53752      307.57445      278.40837      325.33121      55734.133      15782.508      23           
    373000  -2477.7435      21.48554      -2499.229       1.360611       231.82618      300.41456      311.51339      319.55348      354.54209      57008.283      16143.315      28           
    374000  -2478.6135      20.288487     -2498.902       1.360611       218.91013      288.54743      290.91174      302.14672      366.30105      55349.708      15673.649      30           
    375000  -2479.6562      20.684383     -2500.3406      1.360611       223.1818       255.05494      303.74913      307.22057      344.76663      57221.089      16203.577      30           
    376000  -2477.9014      20.377343     -2498.2787      1.360611       219.86888      260.17832      287.05219      316.63848      350.6024       55453.483      15703.035      30           
    377000  -2480.2999      19.849214     -2500.1491      1.360611       214.17044      288.95978      287.74025      289.2446       355.81486      56123.916      15892.885      30           
    378000  -2479.4591      21.045008     -2500.5041      1.360611       227.0729       292.71858      310.65248      305.54483      345.39074      55717.914      15777.915      29           
    379000  -2481.0807      19.763145     -2500.8438      1.360611       213.24176      279.2009       291.23347      285.64198      332.47041      55863.831      15819.236      27           
    380000  -2478.5293      20.527388     -2499.0567      1.360611       221.48785      301.51943      305.00019      293.26114      336.92175      56517.552      16004.353      30           
    381000  -2478.2646      21.193252     -2499.4578      1.360611       228.67243      305.95878      302.37524      326.08385      320.92828      55063.214      15592.521      25           
    382000  -2480.0763      20.265702     -2500.342       1.360611       218.66429      183.94949      280.8723       332.83873      334.32423      56486.301      15995.503      26           
    383000  -2480.6521      20.048107     -2500.7002      1.360611       216.31647      239.87576      269.75531      331.73808      342.37587      55480.082      15710.567      25           
    384000  -2478.8028      20.959706     -2499.7625      1.360611       226.1525       322.27648      294.87325      321.43692      341.85206      56859.626      16101.22       25           
    385000  -2479.8753      21.040352     -2500.9156      1.360611       227.02266      288.34834      314.96868      297.08319      354.01388      55063.552      15592.617      26           
    386000  -2478.7244      20.828695     -2499.553       1.360611       224.73891      357.65546      306.03278      297.76127      324.16397      55008.695      15577.082      29           
    387000  -2479.269       20.799132     -2500.0682      1.360611       224.41992      361.74098      299.85897      307.70913      318.00703      56657.039      16043.852      22           
    388000  -2478.1287      22.252681     -2500.3814      1.360611       240.10353      400.31581      326.77264      321.88316      329.71157      55659.073      15761.253      20           
    389000  -2476.8999      21.537052     -2498.4369      1.360611       232.38199      313.68253      311.62647      326.55212      315.64337      56661.864      16045.218      24           
    390000  -2478.9888      19.506185     -2498.495       1.360611       210.4692       256.19525      298.64671      269.97562      316.79249      54755.998      15505.525      28           
    391000  -2477.8236      21.134612     -2498.9582      1.360611       228.03971      358.62934      307.93439      314.68216      294.92772      57452.241      16269.033      22           
    392000  -2479.0589      21.577005     -2500.6359      1.360611       232.81307      314.63503      323.44149      312.38663      307.49174      53928.678      15271.249      25           
    393000  -2477.7163      21.404731     -2499.1211      1.360611       230.95426      301.17035      310.22074      323.40078      322.37146      57266.979      16216.572      23           
    394000  -2479.308       19.942168     -2499.2501      1.360611       215.17339      336.99276      277.62575      306.21451      314.65568      54315.64       15380.827      31           
    395000  -2479.8329      20.497393     -2500.3303      1.360611       221.16421      395.87401      291.99731      302.60745      313.76024      56128.484      15894.179      24           
    396000  -2479.8036      21.19112      -2500.9948      1.360611       228.64942      314.49015      313.60563      309.94291      312.68782      55745.194      15785.64       25           
    397000  -2480.0248      20.982911     -2501.0077      1.360611       226.40288      347.80313      289.65719      327.62601      336.63994      55263.115      15649.128      24           
    398000  -2479.8122      20.499006     -2500.3112      1.360611       221.18161      323.97925      272.44244      338.20311      325.35587      56844.733      16097.002      27           
    399000  -2478.7056      20.493304     -2499.1989      1.360611       221.12008      251.80533      303.91729      303.83599      313.82612      54553.89       15448.293      27           
    400000  -2479.8628      19.715619     -2499.5784      1.360611       212.72896      270.33499      292.6113       286.64198      311.86777      57546.744      16295.794      30           
    401000  -2480.9129      19.327673     -2500.2405      1.360611       208.54308      282.95741      290.17786      276.29454      289.60087      54929.307      15554.602      27           
    402000  -2480.7482      19.508595     -2500.2568      1.360611       210.4952       321.37997      276.49844      300.94867      280.13241      56512.353      16002.881      24           
    403000  -2479.1602      21.048967     -2500.2091      1.360611       227.11562      313.04612      315.52528      309.29449      278.4243       55458.979      15704.592      18           
    404000  -2480.4433      19.172836     -2499.6161      1.360611       206.87241      284.84264      275.32093      293.1349       282.00747      57261.023      16214.885      20           
    405000  -2478.4608      21.115005     -2499.5758      1.360611       227.82816      313.03388      315.77154      309.1069       287.06478      55967.625      15848.627      21           
    406000  -2478.8143      20.031355     -2498.8456      1.360611       216.13571      334.90312      286.08728      304.49469      291.2259       55263.247      15649.165      24           
    407000  -2479.6181      19.546965     -2499.1651      1.360611       210.9092       353.62675      285.48701      280.20295      301.12561      56423.202      15977.635      27           
    408000  -2478.8505      20.51905      -2499.3695      1.360611       221.39787      361.02938      302.93425      298.05293      281.99371      54982.722      15569.727      25           
    409000  -2480.2005      19.869356     -2500.0698      1.360611       214.38776      236.36741      301.84465      290.50463      275.26187      57309.847      16228.711      26           
    410000  -2479.6098      19.78511      -2499.3949      1.360611       213.47876      280.08011      290.73222      294.06586      293.80461      55114.657      15607.088      29           
    411000  -2479.8225      20.231238     -2500.0537      1.360611       218.29242      297.32475      311.26479      279.30839      296.06849      56907.755      16114.849      30           
    412000  -2478.4688      20.542656     -2499.0114      1.360611       221.65259      299.32933      306.96451      303.09351      265.60019      55579.319      15738.669      30           
    413000  -2480.6776      19.633303     -2500.3109      1.360611       211.84079      242.7957       279.04343      302.68376      336.3193       56847.962      16097.917      27           
    414000  -2479.5075      20.780678     -2500.2882      1.360611       224.22081      328.06696      284.98667      338.02886      289.05697      56622.833      16034.166      25           
    415000  -2479.368       20.903828     -2500.2718      1.360611       225.54958      318.61148      313.23222      305.31845      276.91804      55167.121      15621.945      27           
    416000  -2478.7428      20.247674     -2498.9905      1.360611       218.46977      274.61022      305.43245      299.472        256.29486      56536.692      16009.773      26           
    417000  -2480.3739      19.461589     -2499.8354      1.360611       209.98801      359.00083      291.93768      277.03456      257.40039      56242.878      15926.572      22           
    418000  -2477.6817      21.438009     -2499.1197      1.360611       231.31333      376.11122      331.70438      296.925        254.59391      57954.163      16411.165      24           
    419000  -2477.0007      21.816222     -2498.8169      1.360611       235.3942       284.66147      322.7525       330.02338      293.16747      55052.958      15589.617      28           
    420000  -2478.2578      20.845948     -2499.1037      1.360611       224.92506      335.07724      331.95537      273.66208      272.68937      55675.193      15765.818      29           
    421000  -2480.1456      19.516385     -2499.662       1.360611       210.57925      198.81443      300.7757       286.51009      251.04186      55036.943      15585.082      26           
    422000  -2479.4046      19.703264     -2499.1079      1.360611       212.59566      309.99044      276.44368      314.53711      256.78096      55154.268      15618.305      25           
    423000  -2480.8226      19.263095     -2500.0857      1.360611       207.84629      229.39444      293.4349       278.12654      278.19734      57848.043      16381.114      26           
    424000  -2479.6336      19.584813     -2499.2184      1.360611       211.31758      241.74147      294.57328      288.52346      275.03352      56516.747      16004.125      27           
    425000  -2480.2386      19.589339     -2499.828       1.360611       211.36642      255.82491      309.3443       267.2751       266.41345      56322.962      15949.25       32           
    426000  -2480.6227      19.911745     -2500.5345      1.360611       214.84514      250.71964      315.4618       272.36594      265.65124      54351.091      15390.865      30           
    427000  -2480.1656      19.674527     -2499.8401      1.360611       212.28559      262.88172      296.6414       288.70307      265.8267       55609.766      15747.291      33           
    428000  -2478.7982      20.777541     -2499.5757      1.360611       224.18697      254.56208      316.56933      306.67922      263.70822      55696.681      15771.903      36           
    429000  -2480.2308      20.377128     -2500.6079      1.360611       219.86656      333.30987      312.81342      283.78316      250.67321      57354.382      16241.322      31           
    430000  -2481.2873      19.325598     -2500.6129      1.360611       208.52069      336.27767      283.09293      288.57924      228.6336       54856.279      15533.922      30           
    431000  -2480.7661      19.54866      -2500.3148      1.360611       210.92749      344.5471       292.48935      280.51499      241.50904      56288.285      15939.43       30           
    432000  -2483.0489      18.329556     -2501.3784      1.360611       197.77352      325.68999      269.95991      263.16422      258.22926      56270.481      15934.388      32           
    433000  -2481.3018      19.909623     -2501.2114      1.360611       214.82224      349.92847      295.91224      283.70881      272.35774      55718.611      15778.113      32           
    434000  -2480.3772      19.99245      -2500.3696      1.360611       215.71594      342.129        291.43965      292.83264      293.94588      56883.655      16108.024      27           
    435000  -2480.4104      19.94253      -2500.353       1.360611       215.17731      352.71376      296.25596      282.09797      288.90682      54849.024      15531.868      30           
    436000  -2478.465       21.133175     -2499.5982      1.360611       228.02421      323.45215      321.03042      303.29144      265.31439      57784.742      16363.189      30           
    437000  -2479.5155      20.120508     -2499.636       1.360611       217.09766      261.792        313.06346      283.14899      261.81973      55038.679      15585.573      28           
    438000  -2478.4774      20.068284     -2498.5457      1.360611       216.53417      328.73783      286.36054      311.2789       259.50408      57005.867      16142.631      28           
    439000  -2478.756       21.174131     -2499.9302      1.360611       228.46612      231.58229      323.48596      314.88221      260.7223       55980.334      15852.226      25           
    440000  -2479.1373      20.066277     -2499.2036      1.360611       216.51252      281.04947      286.19132      314.18706      281.82571      55610.875      15747.605      28           
    441000  -2478.5671      21.464803     -2500.0319      1.360611       231.60244      220.13224      325.34873      321.08296      290.77604      56562.696      16017.137      28           
    442000  -2479.2305      20.064277     -2499.2948      1.360611       216.49093      335.29413      309.28021      272.31438      277.51555      55723.036      15779.366      30           
    443000  -2479.9042      19.315874     -2499.2201      1.360611       208.41576      373.32737      285.86736      270.27086      283.57818      57001.247      16141.323      28           
    444000  -2479.3763      19.419232     -2498.7955      1.360611       209.53098      224.51271      298.58451      274.9527       293.90254      55620.612      15750.362      27           
    445000  -2478.7903      19.6216       -2498.4119      1.360611       211.71451      288.41395      296.17307      280.49552      280.21893      56477.382      15992.978      27           
    446000  -2479.1308      19.624592     -2498.7554      1.360611       211.7468       307.69392      281.14554      298.00891      292.20329      55549.99       15730.363      26           
    447000  -2479.6253      18.783481     -2498.4088      1.360611       202.67131      287.47559      286.37638      263.24341      264.77187      57360.56       16243.072      28           
    448000  -2478.4901      21.169873     -2499.66        1.360611       228.42018      303.08523      311.7397       315.82772      299.56583      55105.389      15604.464      26           
    449000  -2478.4875      20.743426     -2499.2309      1.360611       223.81886      368.10696      306.66728      303.11313      268.05595      55464.466      15706.145      26           
    450000  -2477.2771      21.50363      -2498.7807      1.360611       232.02137      350.98702      311.41799      330.39942      273.98915      55814.052      15805.139      22           
    451000  -2479.0639      19.916059     -2498.9799      1.360611       214.89168      356.14207      302.35688      269.54691      307.65945      55634.504      15754.296      25           
    452000  -2478.4641      21.134106     -2499.5982      1.360611       228.03425      386.97292      294.41379      329.79761      302.84926      57028.341      16148.996      22           
    453000  -2478.5         21.249059     -2499.7491      1.360611       229.27458      295.83671      320.85337      298.7869       334.91727      54719.023      15495.055      21           
    454000  -2478.4244      20.986098     -2499.4105      1.360611       226.43726      272.75947      316.94228      297.91594      327.47806      56312.207      15946.204      21           
    455000  -2476.6135      21.122697     -2497.7362      1.360611       227.91115      388.57069      302.36141      312.00455      327.95278      55564.57       15734.492      22           
    456000  -2477.6049      21.280899     -2498.8858      1.360611       229.61813      343.0312       311.01964      302.4644       364.95079      56294.942      15941.315      21           
    457000  -2479.5765      20.80901      -2500.3855      1.360611       224.52651      278.82813      308.10007      296.10958      356.98139      55002.038      15575.197      22           
    458000  -2479.7275      19.930245     -2499.6577      1.360611       215.04475      344.36479      298.7094       265.85358      363.93113      56411.849      15974.42       20           
    459000  -2479.0268      20.484626     -2499.5114      1.360611       221.02645      246.81854      293.47084      303.99065      370.11693      55838.993      15812.202      18           
    460000  -2477.5108      21.699698     -2499.2105      1.360611       234.13692      267.29568      319.2871       312.16351      378.0202       56519.114      16004.795      19           
    461000  -2479.8055      20.746838     -2500.5523      1.360611       223.85568      360.56464      308.78753      288.22854      334.7702       55802.814      15801.957      24           
    462000  -2478.7346      21.287552     -2500.0222      1.360611       229.68992      271.46144      307.54387      319.24623      357.36162      55466.436      15706.703      25           
    463000  -2478.0141      21.584862     -2499.5989      1.360611       232.89786      299.62304      306.6779       327.23734      376.37842      57167.191      16188.314      27           
    464000  -2479.6672      20.151949     -2499.8191      1.360611       217.43691      410.05613      304.77744      267.55192      315.22942      56064.186      15875.971      25           
    465000  -2478.3331      20.619513     -2498.9526      1.360611       222.48186      264.26387      314.36345      288.6698       332.35399      57416.438      16258.895      27           
    466000  -2478.0148      21.198168     -2499.213       1.360611       228.72548      296.75865      283.84792      348.17057      357.26058      54277.106      15369.915      31           
    467000  -2479.8222      20.233509     -2500.0557      1.360611       218.31692      207.81248      304.64068      289.62547      350.38471      56269.323      15934.061      24           
    468000  -2479.539       20.019514     -2499.5586      1.360611       216.00795      384.25103      304.20501      255.59653      367.89129      55476.706      15709.611      23           
    469000  -2480.1443      19.607879     -2499.7522      1.360611       211.56647      290.355        290.39056      274.31097      355.02017      55108.175      15605.253      28           
    470000  -2481.4511      19.302199     -2500.7533      1.360611       208.26821      301.83439      261.40715      297.19432      383.38802      55756.143      15788.741      25           
    471000  -2480.2105      20.046671     -2500.2571      1.360611       216.30097      242.93024      284.31248      293.21524      421.08092      55209.123      15633.839      23           
    472000  -2478.0543      21.113889     -2499.1682      1.360611       227.81611      310.12161      301.76421      314.09129      363.94231      57673.352      16331.646      22           
    473000  -2479.2707      20.082928     -2499.3536      1.360611       216.69218      298.41633      293.0163       294.3539       323.01282      54119.36       15325.245      22           
    474000  -2479.1326      19.698353     -2498.8309      1.360611       212.54267      324.42406      281.87328      286.86374      348.59165      56902.984      16113.497      23           
    475000  -2480.5357      19.905061     -2500.4407      1.360611       214.77302      289.68253      293.43114      287.12449      324.52784      53902.57       15263.856      24           
    476000  -2479.129       19.85749      -2498.9865      1.360611       214.25973      295.61417      274.13041      308.59962      342.51432      57111.134      16172.44       27           
    477000  -2476.9499      21.969965     -2498.9198      1.360611       237.05306      375.891        304.81837      338.12956      359.37766      54734.405      15499.41       22           
    478000  -2479.3158      21.417072     -2500.7329      1.360611       231.08742      350.36844      304.40049      324.10496      335.41732      55608.293      15746.874      22           
    479000  -2480.045       20.349271     -2500.3943      1.360611       219.56598      286.90391      309.173        279.12262      335.70854      56302.924      15943.576      18           
    480000  -2478.2879      21.542702     -2499.8306      1.360611       232.44295      326.06859      305.471        329.66501      338.17849      55889.341      15826.459      22           
    481000  -2478.9096      20.972452     -2499.882       1.360611       226.29003      358.49497      302.61412      306.31307      342.31517      56863.816      16102.406      22           
    482000  -2480.7207      20.090846     -2500.8116      1.360611       216.77761      240.82721      298.46743      287.61339      353.74194      55109.324      15605.578      24           
    483000  -2480.4717      20.175478     -2500.6472      1.360611       217.69078      332.04334      301.1638       275.31523      355.39644      56480.253      15993.791      26           
    484000  -2479.6705      19.916838     -2499.5874      1.360611       214.90009      223.36374      290.37003      293.01003      366.78483      55107.376      15605.026      25           
    485000  -2479.5504      20.507177     -2500.0576      1.360611       221.26977      226.93907      309.70067      285.70158      389.81399      55835.763      15811.287      28           
    486000  -2480.2813      20.598641     -2500.8799      1.360611       222.25665      287.90247      289.31148      308.23505      398.91364      55099.481      15602.791      25           
    487000  -2480.1864      20.440144     -2500.6266      1.360611       220.54649      274.47061      279.32502      325.007        358.39823      56952.959      16127.649      23           
    488000  -2480.111       20.493564     -2500.6046      1.360611       221.12289      346.96245      282.50635      319.95532      332.3425       55997.234      15857.012      18           
    489000  -2479.9291      20.506152     -2500.4352      1.360611       221.25871      240.72621      295.92894      311.77118      336.21414      56339.526      15953.94       24           
    490000  -2481.2203      19.48511      -2500.7055      1.360611       210.24181      319.77267      272.56233      297.72303      321.96032      56717.693      16061.028      22           
    491000  -2480.1731      19.200813     -2499.3739      1.360611       207.17428      328.60534      272.84751      285.66803      317.18745      55703.014      15773.696      21           
    492000  -2481.0277      18.690032     -2499.7177      1.360611       201.66301      170.11702      291.30982      255.55407      311.32634      55998.585      15857.394      21           
    493000  -2479.8403      19.02757      -2498.8678      1.360611       205.30501      248.01457      278.73118      277.26481      320.90465      55521.13       15722.191      20           
    494000  -2479.7028      20.02874      -2499.7316      1.360611       216.1075       293.23222      307.79656      272.47758      314.28644      56036.718      15868.193      20           
    495000  -2480.1784      20.216967     -2500.3954      1.360611       218.13845      337.92302      301.56929      286.11826      307.43122      56977.275      16134.535      22           
    496000  -2478.8186      20.20825      -2499.0268      1.360611       218.04438      402.7886       298.37223      282.87989      308.67769      55021.314      15580.656      22           
    497000  -2480.6835      19.875046     -2500.5586      1.360611       214.44916      375.28805      294.37984      278.05683      299.1297       56294.148      15941.091      27           
    498000  -2479.6718      21.657278     -2501.3291      1.360611       233.67921      373.67941      314.7578       320.52086      299.38163      56222.311      15920.748      30           
    499000  -2480.1123      20.913125     -2501.0254      1.360611       225.6499       291.27206      319.05333      298.99285      286.18926      56079.999      15880.449      33           
    500000  -2480.1918      19.924947     -2500.1167      1.360611       214.98759      245.07363      286.823        314.27945      273.82891      55696.563      15771.869      29           
    501000  -2480.3149      20.922173     -2501.2371      1.360611       225.74752      315.29488      309.64683      312.74283      265.89523      55799.836      15801.114      29           
    502000  -2479.6502      20.245476     -2499.8957      1.360611       218.44605      298.22303      305.77756      295.93373      247.64176      56807.662      16086.505      27           
    503000  -2479.5687      19.986794     -2499.5555      1.360611       215.6549       253.06969      312.09618      279.45978      269.1876       56587.463      16024.15       33           
    504000  -2479.8455      19.834815     -2499.6803      1.360611       214.01507      247.79201      298.20533      295.15755      264.65253      56725.963      16063.37       34           
    505000  -2480.3171      20.257094     -2500.5742      1.360611       218.57141      233.79955      302.56856      308.3014       271.65889      55546.101      15729.262      36           
    506000  -2480.503       19.341954     -2499.8449      1.360611       208.69717      196.03992      283.31308      304.92827      275.91072      56413.84       15974.984      35           
    507000  -2482.1297      19.026772     -2501.1565      1.360611       205.29639      235.78192      282.15727      286.41284      279.42438      54873.315      15538.746      37           
    508000  -2480.9942      19.376326     -2500.3705      1.360611       209.06804      276.77225      286.50337      293.49308      220.28651      55926.218      15836.902      39           
    509000  -2481.0492      19.240326     -2500.2896      1.360611       207.60062      291.45609      292.11898      280.83517      197.3884       55389.306      15684.862      36           
    510000  -2479.4289      20.194586     -2499.6235      1.360611       217.89696      244.00038      281.14055      345.57696      195.39378      57181.175      16192.274      37           
    511000  -2480.1549      19.72443      -2499.8793      1.360611       212.82403      265.28917      303.08423      289.5161       205.71474      55563.295      15734.131      34           
    512000  -2479.7116      20.536521     -2500.2481      1.360611       221.58638      248.16716      313.94038      310.12973      201.81408      56406.018      15972.769      31           
    513000  -2479.8449      20.482778     -2500.3276      1.360611       221.00651      285.81967      309.53636      308.84939      210.99994      56276.21       15936.011      29           
    514000  -2481.9734      18.767879     -2500.7413      1.360611       202.50297      211.7494       271.53282      303.55736      218.40387      55057.429      15590.883      30           
    515000  -2480.1381      19.503651     -2499.6417      1.360611       210.44186      238.6227       299.64886      291.59521      208.94386      58016.558      16428.834      31           
    516000  -2480.6948      19.472509     -2500.1673      1.360611       210.10584      340.92873      298.82667      279.16186      196.15         54874.698      15539.138      26           
    517000  -2480.4283      19.891998     -2500.3203      1.360611       214.63207      242.42593      306.44042      300.05099      183.25079      56726.156      16063.424      26           
    518000  -2480.7442      19.070486     -2499.8147      1.360611       205.76807      289.23425      274.28578      304.43405      196.98986      55304.026      15660.713      29           
    519000  -2479.5255      19.812216     -2499.3377      1.360611       213.77123      267.2021       285.69481      317.9852       216.38892      55706.593      15774.71       28           
    520000  -2479.8117      20.219764     -2500.0315      1.360611       218.16862      240.82595      308.25043      308.82949      205.66777      55450.858      15702.292      28           
    521000  -2481.2833      19.642981     -2500.9262      1.360611       211.94521      235.05704      298.38338      299.10949      204.86772      56283.655      15938.119      24           
    522000  -2481.7206      19.187587     -2500.9082      1.360611       207.03156      268.87221      286.65353      292.98135      206.24352      56651.993      16042.423      25           
    523000  -2480.3903      19.802223     -2500.1925      1.360611       213.66341      279.53081      303.81506      292.05694      211.87295      54990.439      15571.913      22           
    524000  -2479.2071      20.585024     -2499.7921      1.360611       222.10973      311.55527      315.42636      304.96867      207.95574      56882.462      16107.686      22           
    525000  -2478.5744      20.429641     -2499.0041      1.360611       220.43316      243.31953      321.48362      295.88243      216.59138      55524.405      15723.119      23           
    526000  -2478.5248      19.721357     -2498.2461      1.360611       212.79087      315.35061      296.4667       295.76672      210.36903      56534.61       16009.183      23           
    527000  -2479.9861      19.669657     -2499.6557      1.360611       212.23304      300.1316       304.51311      283.72098      209.93367      56172.413      15906.618      24           
    528000  -2478.7823      20.729107     -2499.5114      1.360611       223.66437      346.17581      309.37762      316.09286      208.93942      55891.658      15827.115      20           
    529000  -2479.6065      20.558949     -2500.1654      1.360611       221.82839      352.29912      302.55609      313.35987      228.40119      56743.41       16068.31       24           
    530000  -2479.785       20.66704      -2500.4521      1.360611       222.99468      233.80881      284.64092      360.14595      216.41722      55599.533      15744.393      25           
    531000  -2481.428       19.71351      -2501.1416      1.360611       212.7062       349.84866      285.65183      305.13668      222.36596      56246.676      15927.647      22           
    532000  -2480.0938      20.811246     -2500.905       1.360611       224.55063      291.8033       304.97661      319.43263      266.50455      55513.676      15720.08       20           
    533000  -2481.0411      18.854817     -2499.8959      1.360611       203.44102      270.6129       275.62726      285.8838       258.70338      55992.364      15855.633      22           
    534000  -2480.3506      19.010456     -2499.3611      1.360611       205.12034      295.47707      269.16266      298.55722      261.68639      56371.13       15962.89       21           
    535000  -2479.0176      20.010662     -2499.0282      1.360611       215.91244      301.21834      297.47988      300.33802      247.98449      55539.394      15727.363      21           
    536000  -2480.0412      19.936093     -2499.9772      1.360611       215.10784      305.43616      294.94171      299.21647      252.18287      55758.274      15789.344      25           
    537000  -2482.579       18.754707     -2501.3337      1.360611       202.36085      320.71836      285.95103      257.39623      273.09243      56341.357      15954.459      24           
    538000  -2480.1855      19.781909     -2499.9674      1.360611       213.44422      277.88674      287.3535       308.41487      246.5513       55816.388      15805.801      21           
    539000  -2480.723       19.423432     -2500.1465      1.360611       209.57631      233.4944       291.43044      287.44804      269.29812      56930.699      16121.346      20           
    540000  -2479.2691      21.428676     -2500.6978      1.360611       231.21263      326.29089      317.28119      322.6769       257.22773      56663.797      16045.766      27           
    541000  -2478.8578      20.439426     -2499.2972      1.360611       220.53875      299.58666      302.45183      303.74194      279.34522      56941.444      16124.389      26           
    542000  -2480.5043      19.800791     -2500.3051      1.360611       213.64796      340.95839      287.68992      296.92407      267.16148      56319.302      15948.214      23           
    543000  -2478.5103      20.718717     -2499.229       1.360611       223.55225      345.79673      305.18125      306.52276      270.69805      55077.191      15596.479      27           
    544000  -2478.3999      20.145942     -2498.5458      1.360611       217.3721       265.53846      306.58729      290.57963      274.67147      56377.553      15964.709      24           
    545000  -2480.7663      19.735445     -2500.5018      1.360611       212.94288      308.63891      293.87595      290.16084      256.59058      55820.666      15807.012      28           
    546000  -2480.8174      19.953926     -2500.7713      1.360611       215.30026      287.92478      303.29138      286.88305      265.14168      56131.742      15895.101      27           
    547000  -2478.6825      20.979748     -2499.6623      1.360611       226.36875      320.41635      303.14608      321.14945      279.57284      56452.851      15986.031      30           
    548000  -2480.303       20.679041     -2500.9821      1.360611       223.12416      313.47114      321.38957      284.06655      275.11998      54894.586      15544.77       27           
    549000  -2479.4449      21.008007     -2500.453       1.360611       226.67366      252.30968      325.63191      299.76193      283.85153      56464.092      15989.214      32           
    550000  -2479.6897      20.828041     -2500.5178      1.360611       224.73185      243.92837      327.7278       288.85475      282.08356      55127.77       15610.801      24           
    551000  -2478.4556      21.568173     -2500.0238      1.360611       232.71778      282.3496       308.20423      342.38123      286.23607      56647.558      16041.167      21           
    552000  -2478.4214      20.532985     -2498.9544      1.360611       221.54823      266.04503      302.09912      315.34214      264.08511      55745.249      15785.656      21           
    553000  -2480.1424      19.447673     -2499.59        1.360611       209.83786      184.07449      303.95627      274.80835      274.32556      55676.579      15766.21       22           
    554000  -2480.0022      19.85851      -2499.8607      1.360611       214.27073      191.02994      314.25873      279.90409      258.56188      56492.446      15997.244      24           
    555000  -2479.6456      21.025991     -2500.6716      1.360611       226.8677       278.16382      306.07791      329.11699      257.97949      56143.753      15898.502      20           
    556000  -2479.9671      19.732631     -2499.6998      1.360611       212.91252      252.51109      293.47512      296.06983      266.75869      56353.806      15957.984      24           
    557000  -2478.9915      20.836734     -2499.8282      1.360611       224.82565      222.08718      296.48438      341.781        267.35257      56355.723      15958.527      28           
    558000  -2480.7745      19.592165     -2500.3667      1.360611       211.39691      355.89764      304.44064      257.98944      267.522        56700.802      16056.245      31           
    559000  -2479.4659      20.492938     -2499.9588      1.360611       221.11614      331.55991      279.17071      327.85741      323.66532      56263.607      15932.442      26           
    560000  -2480.2043      20.233276     -2500.4376      1.360611       218.31441      231.51875      282.69306      328.74776      316.42524      56243.631      15926.785      32           
    561000  -2480.1522      19.46739      -2499.6195      1.360611       210.05061      277.42323      279.55844      291.92428      325.76368      56385.238      15966.885      28           
    562000  -2478.5114      20.987528     -2499.4989      1.360611       226.4527       259.45124      301.4973       319.81772      372.27373      57023.303      16147.569      33           
    563000  -2479.4339      20.883126     -2500.317       1.360611       225.32622      287.93341      313.31659      302.90555      305.35251      55895.59       15828.229      30           
    564000  -2480.5828      20.726385     -2501.3092      1.360611       223.63499      219.83925      303.52907      318.37549      330.08857      55803.848      15802.25       32           
    565000  -2479.3416      20.04923      -2499.3908      1.360611       216.32858      277.0934       290.06985      302.67277      315.55056      56638.494      16038.601      31           
    566000  -2480.3014      21.357633     -2501.6591      1.360611       230.44608      305.07158      313.5072       312.82953      350.50359      56386.365      15967.204      33           
    567000  -2481.2836      20.11328      -2501.3968      1.360611       217.01967      299.66129      292.94867      297.29659      323.75189      55872.364      15821.652      38           
    568000  -2480.0688      20.774434     -2500.8432      1.360611       224.15343      280.2152       287.17683      339.90103      295.44972      56511.444      16002.623      30           
    569000  -2481.5097      20.003552     -2501.5132      1.360611       215.83573      293.47922      301.12765      290.08062      265.55847      56292.814      15940.713      31           
    570000  -2480.0601      19.416147     -2499.4762      1.360611       209.4977       328.03839      288.84073      282.88265      230.12181      56121.098      15892.087      35           
    571000  -2479.7621      19.714045     -2499.4762      1.360611       212.71198      209.15095      293.31185      304.8987       264.01234      55834.476      15810.923      35           
    572000  -2481.2057      20.434315     -2501.64        1.360611       220.4836       296.80451      303.51331      307.52616      220.47473      55771.961      15793.22       41           
    573000  -2480.6328      20.121139     -2500.754       1.360611       217.10447      253.04006      294.41866      312.60633      262.08192      55874.228      15822.18       40           
    574000  -2478.9893      20.583801     -2499.5731      1.360611       222.09654      242.15         300.30714      324.37131      265.44414      56725.849      16063.337      39           
    575000  -2481.2255      19.15012      -2500.3756      1.360611       206.6273       261.04056      289.17557      279.7738       251.52456      56398.945      15970.766      35           
    576000  -2480.2684      19.445761     -2499.7142      1.360611       209.81724      364.36871      272.05381      301.37835      241.46871      56367.211      15961.78       33           
    577000  -2480.123       20.270795     -2500.3938      1.360611       218.71924      265.6756       289.61836      321.62734      274.63522      56464.434      15989.311      33           
    578000  -2478.7084      20.910856     -2499.6192      1.360611       225.62541      236.17678      292.43786      352.60327      245.23891      54947.282      15559.692      27           
    579000  -2479.9702      20.920204     -2500.8904      1.360611       225.72628      280.48563      313.25474      316.94312      242.99366      56303.014      15943.601      29           
    580000  -2479.9473      20.481379     -2500.4287      1.360611       220.99142      197.78667      315.78954      308.07021      250.22073      55245.155      15644.042      32           
    581000  -2479.7244      19.583669     -2499.308       1.360611       211.30524      270.65368      295.58159      286.62495      255.96529      55622.616      15750.93       30           
    582000  -2478.5696      20.910185     -2499.4798      1.360611       225.61818      240.01039      325.56492      298.67733      272.96172      54621.121      15467.331      28           
    583000  -2480.0907      19.649379     -2499.74        1.360611       212.01424      309.00198      304.92953      264.90261      287.23715      56144.994      15898.854      27           
    584000  -2479.2946      20.893636     -2500.1883      1.360611       225.43961      278.71853      318.465        303.21171      274.04468      54812.601      15521.554      25           
    585000  -2479.462       20.353913     -2499.8159      1.360611       219.61607      312.97454      304.70732      291.7649       297.33562      55795.083      15799.768      26           
    586000  -2477.7624      21.549482     -2499.3119      1.360611       232.5161       356.5447       316.60468      322.08751      273.95482      55409.736      15690.647      25           
    587000  -2480.0908      19.906374     -2499.9971      1.360611       214.78719      402.81265      301.91554      273.27236      257.91959      56180.268      15908.843      25           
    588000  -2480.4704      18.736891     -2499.2073      1.360611       202.16862      300.01799      271.92962      284.62257      247.80326      56583.695      16023.083      25           
    589000  -2478.9764      19.95789      -2498.9343      1.360611       215.34304      280.01303      284.21047      316.30626      264.13453      55074.676      15595.766      25           
    590000  -2479.8049      20.465403     -2500.2703      1.360611       220.81903      256.11995      298.08067      318.22748      271.38856      57006.543      16142.823      24           
    591000  -2481.6359      18.241658     -2499.8776      1.360611       196.82512      213.92787      279.08944      259.20796      271.39903      55400.671      15688.08       22           
    592000  -2479.7897      20.823874     -2500.6135      1.360611       224.68689      205.30505      321.40897      305.25552      273.62306      56240.793      15925.982      25           
    593000  -2481.1555      19.473932     -2500.6294      1.360611       210.12119      261.01512      279.15971      298.19471      308.84713      56205.74       15916.055      28           
    594000  -2479.0871      20.905262     -2499.9923      1.360611       225.56506      328.07571      324.26437      286.64757      277.26339      55666.303      15763.3        31           
    595000  -2480.2863      20.126221     -2500.4125      1.360611       217.15931      241.05098      315.2529       286.66101      241.68551      55725.003      15779.923      25           
    596000  -2479.6914      21.217119     -2500.9085      1.360611       228.92995      320.25982      328.97605      302.00917      241.69092      55937.116      15839.988      22           
    597000  -2480.0222      20.207028     -2500.2293      1.360611       218.03121      291.69146      310.71363      287.73971      255.15464      55807.79       15803.366      29           
    598000  -2478.8858      20.304687     -2499.1904      1.360611       219.08493      231.83288      301.50268      312.37179      263.52159      55543.084      15728.408      28           
    599000  -2479.2681      20.110686     -2499.3788      1.360611       216.99168      326.77819      289.18308      310.39739      257.83158      56147.58       15899.586      25           
    600000  -2479.6403      20.094992     -2499.7353      1.360611       216.82234      284.97602      291.51204      307.42993      280.29394      55564.673      15734.521      22           
    601000  -2477.7245      21.438893     -2499.1634      1.360611       231.32287      309.98369      326.97472      307.1015       282.86232      56923.975      16119.442      24           
    602000  -2479.2177      21.056057     -2500.2738      1.360611       227.19211      283.40031      303.17535      332.72631      265.585        55997.525      15857.094      23           
    603000  -2480.8837      19.389061     -2500.2728      1.360611       209.20545      197.53661      287.66518      299.32504      264.65064      55330.585      15668.233      28           
    604000  -2479.9964      19.0915       -2499.0879      1.360611       205.9948       295.38146      287.20932      282.54008      215.2741       54659.932      15478.321      30           
    605000  -2480.3182      19.662425     -2499.9806      1.360611       212.155        310.95809      297.38758      287.22406      229.93498      55997.571      15857.107      25           
    606000  -2479.4104      20.454326     -2499.8647      1.360611       220.69952      295.88158      301.29501      316.45954      223.23846      55617.545      15749.494      26           
    607000  -2480.4327      19.869555     -2500.3023      1.360611       214.38991      268.33275      292.64626      309.22664      213.84926      57090.97       16166.73       32           
    608000  -2480.6922      20.134489     -2500.8267      1.360611       217.24852      380.98957      307.01765      279.71584      237.87881      55862.022      15818.723      28           
    609000  -2477.9924      21.639433     -2499.6319      1.360611       233.48667      245.15666      345.37778      302.30508      250.64396      54752.921      15504.654      25           
    610000  -2479.4304      21.064271     -2500.4947      1.360611       227.28074      281.60991      322.36226      307.86377      250.80334      56626.426      16035.183      25           
    611000  -2477.8468      21.463445     -2499.3103      1.360611       231.58778      247.87542      297.92993      358.79317      283.05802      56421.822      15977.244      27           
    612000  -2477.9581      21.013556     -2498.9717      1.360611       226.73354      226.84358      317.73765      316.68593      279.33508      56340.521      15954.222      32           
    613000  -2479.0557      20.55391      -2499.6096      1.360611       221.77401      318.38608      308.9905       293.529        290.48226      56154.91       15901.662      30           
    614000  -2480.2659      19.322521     -2499.5884      1.360611       208.48749      268.56302      286.05047      286.6637       276.33906      55324.891      15666.621      31           
    615000  -2480.1934      19.99523      -2500.1886      1.360611       215.74593      270.33388      287.18914      307.76872      305.59683      56104.139      15887.285      31           
    616000  -2481.0618      19.141434     -2500.2033      1.360611       206.53358      311.70316      283.49203      274.9987       284.45605      55957.666      15845.807      30           
    617000  -2481.1818      19.547242     -2500.729       1.360611       210.91219      246.63752      309.93647      258.68316      305.31431      55736.637      15783.217      28           
    618000  -2479.4667      20.408731     -2499.8754      1.360611       220.20755      266.28641      311.43081      286.92475      319.77995      56080.67       15880.639      29           
    619000  -2479.8897      19.753711     -2499.6434      1.360611       213.13997      268.44248      282.43977      296.40458      348.35464      55423.468      15694.536      29           
    620000  -2478.0467      20.465184     -2498.5119      1.360611       220.81667      313.82425      296.53074      299.71642      343.54174      55480.103      15710.573      27           
    621000  -2479.3713      20.565539     -2499.9369      1.360611       221.89949      326.6092       302.2745       296.66243      326.69187      56670.294      16047.605      27           
    622000  -2479.7014      20.857509     -2500.5589      1.360611       225.04981      255.18201      298.24154      318.829        358.03587      55647.086      15757.859      27           
    623000  -2480.1841      20.195324     -2500.3794      1.360611       217.90491      256.74675      308.33965      280.69012      345.66215      55141.131      15614.585      32           
    624000  -2477.8291      21.526653     -2499.3557      1.360611       232.26979      241.50245      310.64127      335.83703      342.58648      55607.872      15746.754      33           
    625000  -2479.3112      20.391466     -2499.7027      1.360611       220.02126      352.98393      307.89206      276.93538      323.66074      55662.22       15762.144      33           
    626000  -2480.8104      19.943193     -2500.7536      1.360611       215.18445      244.20063      296.10908      296.28902      300.15841      55111.172      15606.101      27           
    627000  -2480.3255      19.980349     -2500.3059      1.360611       215.58536      339.13367      292.55285      285.52259      322.50895      56418.695      15976.359      28           
    628000  -2478.8958      20.212402     -2499.1082      1.360611       218.08919      290.27815      282.19891      318.72799      312.99659      55731.771      15781.839      23           
    629000  -2479.2646      20.882085     -2500.1467      1.360611       225.31498      256.80198      309.02898      304.53871      345.2455       56458.864      15987.734      23           
    630000  -2479.1489      20.18356      -2499.3325      1.360611       217.77798      341.68378      288.99085      304.20588      303.69844      55319.546      15665.108      19           
    631000  -2480.3217      19.613419     -2499.9351      1.360611       211.62624      290.66913      289.90504      282.48046      311.7606       56221.8        15920.603      19           
    632000  -2480.1316      19.807744     -2499.9394      1.360611       213.72298      321.56775      295.65742      281.84353      297.99157      55246.079      15644.303      21           
    633000  -2480.9318      19.488116     -2500.42        1.360611       210.27423      242.25536      279.50667      298.19374      304.69925      55799.424      15800.997      17           
    634000  -2478.8907      20.322016     -2499.2127      1.360611       219.27191      220.60787      296.15876      307.83246      314.89336      56599.282      16027.497      18           
    635000  -2479.5094      20.454086     -2499.9634      1.360611       220.69693      364.81046      288.87952      314.48764      295.1616       56350.42       15957.025      21           
    636000  -2479.551       20.127921     -2499.6789      1.360611       217.17764      393.20323      301.49502      278.72087      295.89378      57182.524      16192.656      22           
    637000  -2478.9723      20.338524     -2499.3109      1.360611       219.45003      329.7564       277.49048      330.64467      292.17236      54596.881      15460.467      22           
    638000  -2478.837       19.910089     -2498.7471      1.360611       214.82727      308.36467      298.78805      284.63359      287.97358      56332.804      15952.037      26           
    639000  -2478.589       19.484469     -2498.0735      1.360611       210.23488      322.92875      287.41365      285.20824      280.42766      56545.565      16012.285      17           
    640000  -2479.7754      19.61111      -2499.3865      1.360611       211.60132      215.56868      298.10828      283.35544      285.79545      56119.252      15891.564      19           
    641000  -2480.555       19.378886     -2499.9339      1.360611       209.09565      364.25085      281.11787      285.64344      284.61258      56372.962      15963.409      17           
    642000  -2477.4492      20.435477     -2497.8847      1.360611       220.49614      290.19428      298.57277      310.8603       279.49662      56863.636      16102.355      16           
    643000  -2479.1675      19.665683     -2498.8332      1.360611       212.19016      213.69476      295.56988      291.22463      273.59641      54908.834      15548.804      16           
    644000  -2479.5384      20.094784     -2499.6331      1.360611       216.82011      379.55354      296.78585      293.37678      273.76515      57209.871      16200.4        17           
    645000  -2479.2703      19.516326     -2498.7866      1.360611       210.57862      262.45614      296.94312      277.54837      281.9829       54717.751      15494.694      19           
    646000  -2481.0324      18.847688     -2499.8801      1.360611       203.3641       290.39057      266.15568      291.14435      289.17521      56527.269      16007.105      21           
    647000  -2479.9147      19.258275     -2499.173       1.360611       207.79428      229.31234      279.67399      296.07525      288.98677      56002.725      15858.567      26           
    648000  -2479.2513      21.128428     -2500.3797      1.360611       227.97298      227.96759      299.08827      341.70433      293.59463      55462.367      15705.551      20           
    649000  -2478.7072      20.364858     -2499.072       1.360611       219.73417      323.57594      288.54342      311.34809      314.34108      56046.767      15871.038      23           
    650000  -2479.6814      20.004774     -2499.6862      1.360611       215.8489       265.11759      289.60339      300.95251      322.70829      55496.227      15715.139      27           
    651000  -2480.1448      19.831036     -2499.9759      1.360611       213.9743       284.70463      286.58705      297.40639      312.13005      56978.708      16134.941      24           
    652000  -2480.2169      20.710873     -2500.9278      1.360611       223.46762      312.36567      287.76704      330.29917      303.38314      54485.682      15428.978      25           
    653000  -2478.6207      20.477038     -2499.0978      1.360611       220.94457      247.91733      292.455        317.26409      325.0508       56960.764      16129.859      24           
    654000  -2478.6853      21.135488     -2499.8208      1.360611       228.04917      254.05855      312.04338      320.57213      303.71904      55896.798      15828.571      29           
    655000  -2479.3928      19.865688     -2499.2584      1.360611       214.34819      269.82883      293.83757      290.89428      309.18414      56643.493      16040.016      25           
    656000  -2479.7944      19.601581     -2499.396       1.360611       211.49851      352.22018      286.00436      278.59438      321.14218      55584.327      15740.087      26           
    657000  -2478.6849      21.04621      -2499.7311      1.360611       227.08587      284.36819      304.6014       319.98653      322.69376      56127.522      15893.906      29           
    658000  -2480.8547      19.32775      -2500.1825      1.360611       208.5439       283.85843      284.52063      281.78032      308.25702      56311.721      15946.067      32           
    659000  -2479.4979      20.161707     -2499.6596      1.360611       217.5422       290.61782      313.69301      269.77389      322.69475      56211.183      15917.597      32           
    660000  -2480.3698      19.659335     -2500.0291      1.360611       212.12167      272.04921      291.28048      287.57302      309.10967      56526.724      16006.95       33           
    661000  -2480.7381      19.972889     -2500.711       1.360611       215.50487      247.10144      314.09129      270.48183      312.84364      54635.964      15471.534      33           
    662000  -2480.1214      19.756862     -2499.8782      1.360611       213.17397      286.00263      281.2141       307.56862      284.60888      57072.874      16161.606      32           
    663000  -2480.7822      19.533057     -2500.3153      1.360611       210.75914      307.84447      300.07962      261.4049       318.62904      54482.41       15428.052      26           
    664000  -2479.491       21.045626     -2500.5366      1.360611       227.07957      331.06238      305.09714      322.11259      276.78631      57256.201      16213.52       22           
    665000  -2480.3532      21.401119     -2501.7543      1.360611       230.91529      316.5669       314.02011      318.01209      310.93671      57053          16155.978      27           
    666000  -2479.6253      20.471287     -2500.0966      1.360611       220.88252      280.23215      306.27082      296.26145      308.69509      55549.692      15730.279      25           
    667000  -2480.5946      19.531966     -2500.1266      1.360611       210.74737      292.72852      292.316        278.60006      297.9778       56865.716      16102.944      23           
    668000  -2478.7813      20.498633     -2499.28        1.360611       221.17758      298.10516      307.56978      295.86785      294.58934      54889.088      15543.213      30           
    669000  -2481.2         19.914818     -2501.1148      1.360611       214.87829      365.7991       295.41625      283.51997      261.92787      57656.798      16326.959      32           
    670000  -2479.9062      20.669298     -2500.5755      1.360611       223.01904      357.56314      308.90894      296.48788      260.73627      55074.167      15595.623      31           
    671000  -2479.376       21.29341      -2500.6694      1.360611       229.75312      408.49523      324.74447      292.37582      246.50908      57479.939      16276.877      32           
    672000  -2478.7936      20.279402     -2499.073       1.360611       218.81211      371.23762      312.02224      274.05769      237.67853      54864.949      15536.377      36           
    673000  -2480.4275      19.878989     -2500.3065      1.360611       214.4917       385.2682       289.42294      284.34691      271.69469      56939.03       16123.705      35           
    674000  -2480.1188      21.01744      -2501.1362      1.360611       226.77544      348.29478      306.14392      312.50502      271.10699      55866.126      15819.885      37           
    675000  -2478.7695      20.81362      -2499.5831      1.360611       224.57625      360.00635      319.21824      281.87337      288.76143      57206.468      16199.436      33           
    676000  -2479.0316      20.03504      -2499.0666      1.360611       216.17548      305.2919       291.14964      304.87262      256.44355      56569.489      16019.06       34           
    677000  -2480.9515      19.838559     -2500.79        1.360611       214.05547      316.35393      282.29733      309.05716      254.19639      55391.253      15685.413      32           
    678000  -2478.7823      20.624231     -2499.4066      1.360611       222.53277      364.33476      301.98616      310.57279      226.2835       56810.79       16087.39       29           
    679000  -2479.7257      18.872566     -2498.5982      1.360611       203.63253      285.02297      280.61957      282.66682      225.06414      55344.088      15672.057      30           
    680000  -2478.6371      20.789572     -2499.4266      1.360611       224.31677      284.23445      324.50174      297.45954      227.23848      58514.227      16569.761      22           
    681000  -2480.6135      19.276313     -2499.8898      1.360611       207.9889       231.7131       285.93567      296.03394      236.94462      55254.789      15646.77       19           
    682000  -2479.8715      19.542983     -2499.4145      1.360611       210.86625      282.47438      286.4504       300.88045      239.56089      56983.344      16136.253      21           
    683000  -2481.1595      19.86642      -2501.0259      1.360611       214.35608      254.36669      290.27505      308.68852      254.14769      55145.322      15615.772      23           
    684000  -2478.7951      20.277437     -2499.0725      1.360611       218.79091      245.99097      310.22879      292.60437      278.50832      57051.133      16155.45       25           
    685000  -2480.0146      19.301673     -2499.3163      1.360611       208.26254      256.94811      285.68416      285.46591      287.70559      56143.76       15898.504      25           
    686000  -2479.8711      20.336552     -2500.2076      1.360611       219.42875      252.85878      302.99911      303.77235      293.17156      54464.371      15422.943      33           
    687000  -2479.3712      20.837451     -2500.2087      1.360611       224.83338      328.99517      303.52645      305.59786      325.93078      57076.451      16162.619      33           
    688000  -2479.3845      20.009644     -2499.3941      1.360611       215.90146      287.19025      294.1433       294.82106      308.89439      54085.444      15315.641      31           
    689000  -2479.4246      19.358102     -2498.7827      1.360611       208.8714       274.38435      291.11577      277.3915       290.80564      56637.581      16038.342      30           
    690000  -2479.9423      19.503383     -2499.4457      1.360611       210.43896      242.15653      282.68792      298.09294      300.7236       53474.331      15142.589      27           
    691000  -2479.2091      21.307462     -2500.5166      1.360611       229.90474      370.94536      284.3163       359.05369      263.53497      56902.273      16113.296      27           
    692000  -2480.6065      19.675224     -2500.2817      1.360611       212.29311      282.68508      305.39537      270.75555      275.56253      55339.403      15670.731      31           
    693000  -2479.7262      20.153974     -2499.8802      1.360611       217.45875      241.45058      293.93592      310.80822      292.47078      55670.569      15764.509      30           
    694000  -2480.4864      19.779136     -2500.2655      1.360611       213.4143       346.24818      290.13836      287.52077      278.15235      56193.569      15912.609      29           
    695000  -2478.5952      21.02819      -2499.6233      1.360611       226.89144      278.99459      307.45582      322.10507      287.66311      55148.043      15616.542      31           
    696000  -2479.8411      20.17706      -2500.0182      1.360611       217.70785      331.8699       287.42214      305.67651      305.8783       55845.7        15814.101      25           
    697000  -2480.0529      20.30053      -2500.3535      1.360611       219.04008      263.04221      317.95951      275.71015      300.3009       55226.013      15638.621      24           
    698000  -2480.409       20.82152      -2501.2305      1.360611       224.66149      382.02861      293.9234       320.56521      281.01798      56928.113      16120.613      26           
    699000  -2478.3302      20.750441     -2499.0806      1.360611       223.89456      401.97855      294.1232       307.26488      319.81782      54686.212      15485.763      26           
    700000  -2479.1496      21.209925     -2500.3595      1.360611       228.85233      323.58182      330.83117      279.35654      336.26954      56493.21       15997.46       21           
    701000  -2480.7218      19.255722     -2499.9776      1.360611       207.76674      289.02036      284.9258       262.40307      375.46404      54996.651      15573.672      22           
    702000  -2480.0448      20.46617      -2500.5109      1.360611       220.82731      275.66989      285.88439      313.12723      370.06864      55985.717      15853.751      25           
    703000  -2478.4266      21.116307     -2499.5429      1.360611       227.8422       195.12891      293.38745      336.99492      369.57011      55535.357      15726.22       22           
    704000  -2479.8338      20.396533     -2500.2304      1.360611       220.07593      333.71899      281.86735      305.84232      391.34836      56485.428      15995.256      21           
    705000  -2480.2066      19.466679     -2499.6733      1.360611       210.04293      311.95431      281.68936      274.67247      366.76926      56374.874      15963.95       19           
    706000  -2479.0626      20.127969     -2499.1906      1.360611       217.17816      296.16733      294.37517      285.00276      365.05174      55332.539      15668.787      20           
    707000  -2479.4898      20.594553     -2500.0844      1.360611       222.21254      279.80721      296.95962      301.72681      366.10849      57965.647      16414.417      19           
    708000  -2478.3072      21.26318      -2499.5703      1.360611       229.42694      273.16669      308.92466      311.75755      363.2195       55162.701      15620.693      18           
    709000  -2477.9388      22.217325     -2500.1561      1.360611       239.72204      325.32362      324.42952      322.642        368.0796       56875.969      16105.847      17           
    710000  -2479.4145      20.615214     -2500.0297      1.360611       222.43547      293.90959      308.37155      284.3194       366.25666      55025.667      15581.888      19           
    711000  -2477.8142      21.361858     -2499.176       1.360611       230.49167      292.91444      318.57908      296.42245      381.33903      56526.897      16006.999      19           
    712000  -2478.5654      20.939361     -2499.5047      1.360611       225.93298      376.41829      285.17725      326.2736       346.4581       55707.192      15774.879      24           
    713000  -2480.447       19.935707     -2500.3827      1.360611       215.10368      343.15895      279.51345      291.44293      376.39017      55662.169      15762.13       24           
    714000  -2479.4227      20.023012     -2499.4457      1.360611       216.0457       263.15189      282.14824      300.25098      378.39313      55602.233      15745.157      21           
    715000  -2477.0914      21.244395     -2498.3358      1.360611       229.22426      357.67165      293.75106      328.25572      352.60065      54707.148      15491.692      24           
    716000  -2478.46        20.72059      -2499.1806      1.360611       223.57247      232.68929      313.86212      292.05536      352.07991      57125.095      16176.394      24           
    717000  -2478.3096      21.480086     -2499.7897      1.360611       231.76733      354.36859      332.15963      282.14083      350.32134      55408.608      15690.328      23           
    718000  -2478.237       21.008055     -2499.2451      1.360611       226.67418      314.36205      297.42928      323.16457      328.95889      56233.537      15923.927      21           
    719000  -2479.0381      20.942727     -2499.9808      1.360611       225.9693       340.55837      284.62017      336.83637      320.25195      55027.153      15582.309      29           
    720000  -2479.8339      20.227388     -2500.0613      1.360611       218.25088      316.70888      309.92168      277.57462      300.56227      56721.197      16062.02       27           
    721000  -2479.2525      20.075823     -2499.3283      1.360611       216.61552      212.29794      313.39349      277.21295      316.47899      56408.169      15973.378      26           
    722000  -2479.6373      20.145298     -2499.7826      1.360611       217.36515      275.34212      280.87412      319.97791      313.46174      56077.068      15879.619      25           
    723000  -2478.7778      20.642166     -2499.42        1.360611       222.72629      279.50094      310.58531      296.99876      311.44675      56705.6        16057.603      28           
    724000  -2479.878       20.014647     -2499.8927      1.360611       215.95544      278.56638      281.18116      316.53495      298.37525      55145.539      15615.833      25           
    725000  -2478.856       20.87833      -2499.7344      1.360611       225.27446      216.33501      306.95893      322.57916      289.45493      57825.148      16374.631      22           
    726000  -2480.333       19.233714     -2499.5668      1.360611       207.52927      182.99442      279.30953      306.54001      249.2871       54174.683      15340.911      18           
    727000  -2480.1759      18.991933     -2499.1679      1.360611       204.92049      338.60778      279.48748      280.45186      254.52541      57216.737      16202.345      19           
    728000  -2479.3849      19.601453     -2498.9864      1.360611       211.49712      324.97106      283.83965      296.91618      265.44819      54884.95       15542.041      23           
    729000  -2479.6048      19.678952     -2499.2838      1.360611       212.33333      237.30196      272.85285      323.91931      276.47664      55899.756      15829.409      22           
    730000  -2479.8239      19.831127     -2499.655       1.360611       213.97528      268.33455      282.34543      311.56149      281.75859      56853.168      16099.391      21           
    731000  -2479.0152      20.92321      -2499.9384      1.360611       225.75871      371.43364      301.16195      316.38054      290.22981      55553.63       15731.394      20           
    732000  -2479.5042      20.275434     -2499.7797      1.360611       218.76929      259.36923      299.04517      307.50308      276.17442      56840.277      16095.74       21           
    733000  -2478.8611      20.153925     -2499.015       1.360611       217.45822      326.38828      300.29813      290.36435      286.84992      55538.271      15727.045      25           
    734000  -2479.868       19.588433     -2499.4564      1.360611       211.35664      231.10177      289.76269      294.41728      288.37645      57495.479      16281.277      25           
    735000  -2479.0394      21.123476     -2500.1629      1.360611       227.91956      334.71156      321.30121      298.5364       286.34269      55378.92       15681.921      24           
    736000  -2479.5506      20.234608     -2499.7852      1.360611       218.32879      270.92081      299.883        302.27085      281.63289      56118.93       15891.473      21           
    737000  -2478.188       20.775936     -2498.9639      1.360611       224.16964      217.07705      316.62643      301.41651      302.89547      55465.567      15706.457      22           
    738000  -2476.7625      21.921929     -2498.6845      1.360611       236.53476      327.53651      308.03344      346.49358      311.80759      56954.829      16128.179      28           
    739000  -2479.4328      20.024585     -2499.4574      1.360611       216.06267      381.39831      286.45188      290.32267      320.27589      56096.119      15885.013      30           
    740000  -2479.5001      20.964615     -2500.4648      1.360611       226.20547      293.53012      304.48735      307.08466      365.3461       55368.749      15679.041      27           
    741000  -2479.0674      21.166599     -2500.234       1.360611       228.38484      445.65095      309.61854      288.19817      363.39557      56461.105      15988.368      26           
    742000  -2478.26        21.552896     -2499.8129      1.360611       232.55294      302.67191      301.37173      334.06878      372.26423      55783.775      15796.566      27           
    743000  -2477.8293      21.61036      -2499.4397      1.360611       233.17297      368.49979      299.66424      330.68882      367.33452      56874.287      16105.371      32           
    744000  -2478.402       21.144735     -2499.5468      1.360611       228.14894      364.1289       307.66242      303.03435      349.35822      55808.137      15803.464      30           
    745000  -2480.2964      21.432486     -2501.7289      1.360611       231.25373      294.24         320.20326      305.52782      354.63488      57475.71       16275.679      27           
    746000  -2479.7075      20.930517     -2500.6381      1.360611       225.83755      282.42484      306.5606       307.74543      354.3693       54809.936      15520.799      29           
    747000  -2478.0232      20.433721     -2498.4569      1.360611       220.47719      301.0136       305.34516      287.18776      351.44176      55786.707      15797.396      35           
    748000  -2479.9546      19.739743     -2499.6943      1.360611       212.98926      254.97252      308.61283      254.95909      382.17399      56487.979      15995.978      29           
    749000  -2479.2247      20.27421      -2499.499       1.360611       218.75608      286.75789      275.65113      324.07506      376.71753      55572.901      15736.851      37           
    750000  -2479.5083      20.287749     -2499.796       1.360611       218.90217      368.52372      307.5917       252.49509      447.99013      56350.741      15957.116      39           
    751000  -2479.7645      20.921367     -2500.6859      1.360611       225.73883      311.96786      309.48904      286.59127      442.76508      56362.479      15960.44       33           
    752000  -2478.5991      21.51384      -2500.1129      1.360611       232.13153      242.00095      319.34339      302.17549      476.77942      57095.857      16168.114      32           
    753000  -2479.6952      20.735147     -2500.4304      1.360611       223.72954      312.89142      284.23203      312.76793      455.53321      55519.653      15721.773      31           
    754000  -2478.5877      20.818187     -2499.4059      1.360611       224.62553      293.43216      282.35757      324.20054      426.04231      56457.614      15987.38       33           
    755000  -2478.7331      20.940211     -2499.6733      1.360611       225.94215      285.28235      308.44819      300.01407      376.72549      55341.448      15671.31       27           
    756000  -2478.6683      20.772108     -2499.4404      1.360611       224.12834      259.35162      309.22012      296.15805      380.55698      56296.981      15941.893      29           
    757000  -2478.3818      20.872053     -2499.2539      1.360611       225.20673      266.57695      309.61726      300.58675      369.94214      55545.943      15729.217      30           
    758000  -2478.4097      20.79479      -2499.2045      1.360611       224.37307      281.6673       299.89774      309.60373      369.88471      55879.456      15823.66       32           
    759000  -2480.1124      19.800612     -2499.913       1.360611       213.64603      340.87475      283.49095      282.39702      378.01088      56755.004      16071.593      31           
    760000  -2478.5233      21.102011     -2499.6253      1.360611       227.68795      362.28771      297.7161       308.20396      396.97847      55451.338      15702.428      32           
    761000  -2479.0925      20.632513     -2499.725       1.360611       222.62213      312.91341      297.01766      294.53005      410.35636      56227.914      15922.335      27           
    762000  -2478.786       20.835854     -2499.6218      1.360611       224.81616      278.84366      314.40432      280.99196      422.01991      55138.85       15613.939      30           
    763000  -2480.6751      19.448499     -2500.1236      1.360611       209.84678      318.13735      265.22062      295.1178       396.31931      56415.811      15975.542      30           
    764000  -2479.675       20.41277      -2500.0878      1.360611       220.25113      289.11911      288.38649      308.16783      367.77172      55753.77       15788.069      28           
    765000  -2480.567       19.016493     -2499.5835      1.360611       205.18549      267.781        282.54921      270.0829       328.67251      57152.692      16184.208      28           
    766000  -2479.5119      20.527073     -2500.039       1.360611       221.48444      273.44164      286.95058      325.29582      328.76762      55823.924      15807.935      30           
    767000  -2477.5535      20.480963     -2498.0345      1.360611       220.98692      207.76892      293.23226      321.59626      337.95232      56592.554      16025.592      28           
    768000  -2480.4482      19.641743     -2500.0899      1.360611       211.93186      333.29665      288.08982      272.87056      357.09654      55802.484      15801.864      25           
    769000  -2479.2568      20.500946     -2499.7578      1.360611       221.20254      383.95266      283.3481       312.00305      341.27872      56585.809      16023.681      24           
    770000  -2480.4924      20.412327     -2500.9047      1.360611       220.24636      240.36009      296.89503      298.6127       377.10019      55175.165      15624.223      23           
    771000  -2479.3566      20.514874     -2499.8714      1.360611       221.35282      310.47469      296.8723       295.0964       368.35788      55864.448      15819.41       25           
    772000  -2478.5561      21.360857     -2499.9169      1.360611       230.48087      381.99698      301.92579      318.47783      342.80712      56267.505      15933.546      29           
    773000  -2478.379       20.970887     -2499.3499      1.360611       226.27315      350.42907      298.60193      318.90927      314.4355       56846.188      16097.414      21           
    774000  -2477.1333      21.335126     -2498.4684      1.360611       230.20323      483.14657      315.09905      293.37033      270.84198      56033.937      15867.405      31           
    775000  -2478.1233      21.013853     -2499.1372      1.360611       226.73674      340.25526      300.64105      309.98901      353.94455      55580.409      15738.978      25           
    776000  -2479.878       20.351006     -2500.229       1.360611       219.58471      384.44404      279.42463      308.5386       341.78635      55943.921      15841.915      31           
    777000  -2478.4719      20.849547     -2499.3214      1.360611       224.9639       261.48477      290.91447      331.86699      345.69055      54787.866      15514.549      31           
    778000  -2478.797       21.078067     -2499.875       1.360611       227.4296       301.38463      309.27192      303.4484       373.22437      56527.533      16007.179      33           
    779000  -2477.3998      21.444459     -2498.8443      1.360611       231.38292      412.70925      334.05412      273.98078      322.01003      54801.186      15518.321      29           
    780000  -2477.9489      20.947324     -2498.8962      1.360611       226.0189       305.7539       323.07767      276.68839      365.22383      57452.887      16269.216      24           
    781000  -2477.7225      20.800177     -2498.5227      1.360611       224.4312       332.94615      316.32786      278.82329      357.23831      54264.938      15366.469      24           
    782000  -2477.5927      21.742746     -2499.3354      1.360611       234.6014       264.52453      337.03585      292.57487      376.01634      56746.931      16069.307      25           
    783000  -2477.9952      21.432189     -2499.4274      1.360611       231.25053      342.97426      330.61674      289.32651      323.84483      54815.343      15522.33       22           
    784000  -2478.4522      20.494919     -2498.9471      1.360611       221.13751      292.11284      292.87305      307.64143      346.57185      58212.898      16484.432      27           
    785000  -2479.7327      20.536725     -2500.2694      1.360611       221.58859      326.6609       311.57997      279.65546      336.96911      55728.102      15780.8        25           
    786000  -2479.711       19.643593     -2499.3546      1.360611       211.95181      354.3575       285.38418      277.87415      335.70791      55622.586      15750.921      27           
    787000  -2481.0644      20.055291     -2501.1197      1.360611       216.39398      343.06095      285.05456      295.54859      342.77131      56714.711      16060.183      26           
    788000  -2479.2397      20.397158     -2499.6369      1.360611       220.08267      370.80448      284.92405      308.9151       324.06278      55306.381      15661.38       30           
    789000  -2479.8576      20.687592     -2500.5452      1.360611       223.21643      419.3324       307.81334      275.33604      354.96804      57704.768      16340.543      27           
    790000  -2478.2885      21.180948     -2499.4695      1.360611       228.53967      375.53419      304.75794      302.11111      374.78437      53943.543      15275.458      29           
    791000  -2478.8089      20.916395     -2499.7253      1.360611       225.68518      350.63771      320.80928      279.91277      330.38989      58615.113      16598.33       25           
    792000  -2478.2908      21.289865     -2499.5807      1.360611       229.71487      308.10948      315.47996      305.50786      343.70425      54341.349      15388.107      21           
    793000  -2478.5184      20.361596     -2498.88        1.360611       219.69897      316.76006      300.90098      288.8259       338.65374      56762.192      16073.629      23           
    794000  -2481.3905      20.326873     -2501.7173      1.360611       219.32432      242.37666      299.74751      296.92824      352.79635      56434.347      15980.791      27           
    795000  -2479.7151      20.329074     -2500.0442      1.360611       219.34807      352.38293      302.48527      285.85542      309.34565      55400.86       15688.134      28           
    796000  -2479.966       20.004526     -2499.9705      1.360611       215.84624      264.01939      298.71628      289.86519      311.69214      57216.941      16202.402      26           
    797000  -2479.3189      19.948712     -2499.2677      1.360611       215.244        377.29369      299.10179      270.1052       320.27478      55685.357      15768.696      27           
    798000  -2480.4421      19.842294     -2500.2844      1.360611       214.09576      253.78113      295.72931      284.35967      333.25921      58284.996      16504.849      24           
    799000  -2478.9934      20.659921     -2499.6533      1.360611       222.91785      322.13206      286.92586      323.63131      322.32639      54307.608      15378.552      30           
    800000  -2480.4596      20.332344     -2500.7919      1.360611       219.38334      383.71407      290.2956       298.90412      324.8344       57984.542      16419.767      22           
    801000  -2480.6006      20.099384     -2500.7         1.360611       216.86974      354.95317      274.23467      319.42352      300.7189       55538.843      15727.207      28           
    802000  -2479.6879      20.318633     -2500.0065      1.360611       219.23541      339.2849       284.6254       311.27237      318.11606      56325.401      15949.941      33           
    803000  -2480.4208      19.609089     -2500.0299      1.360611       211.57952      285.96773      294.63401      282.57106      279.26109      55557.051      15732.363      30           
    804000  -2478.0378      21.496032     -2499.5338      1.360611       231.93939      300.79579      338.27879      297.75019      258.81156      55727.025      15780.495      27           
    805000  -2479.4595      19.99088      -2499.4504      1.360611       215.69899      297.60259      300.16952      289.18385      275.22545      56963.006      16130.494      28           
    806000  -2480.8734      20.479065     -2501.3524      1.360611       220.96645      379.61173      304.07493      296.05754      238.91319      54753.283      15504.756      30           
    807000  -2479.0345      19.518178     -2498.5526      1.360611       210.5986       267.72976      290.67518      292.64309      251.7416       57483.938      16278.009      26           
    808000  -2479.17        20.431271     -2499.6013      1.360611       220.45075      250.3773       305.17251      311.35104      251.21745      55418.461      15693.118      28           
    809000  -2478.9042      20.036603     -2498.9408      1.360611       216.19234      334.77212      285.13245      306.92145      276.12745      57347.629      16239.41       31           
    810000  -2480.1121      19.122142     -2499.2343      1.360611       206.32543      260.30686      277.00869      291.38496      287.49443      54952.412      15561.144      31           
    811000  -2478.6134      20.871142     -2499.4846      1.360611       225.1969       277.63041      318.11419      305.51663      252.75026      56888.257      16109.327      31           
    812000  -2478.7509      21.079316     -2499.8303      1.360611       227.44308      312.1637       308.82244      321.16846      259.72099      55526.783      15723.792      30           
    813000  -2478.1926      20.912721     -2499.1053      1.360611       225.64554      280.947        303.15274      330.46127      247.21796      56733.646      16065.545      28           
    814000  -2479.9388      19.723116     -2499.6619      1.360611       212.80986      312.93709      289.42315      295.80582      253.14121      56656.545      16043.712      28           
    815000  -2479.3178      21.158541     -2500.4764      1.360611       228.2979       253.33378      330.66516      301.73286      258.32034      55616.027      15749.064      27           
    816000  -2478.0238      20.620339     -2498.6441      1.360611       222.49077      274.4458       309.01737      310.74547      247.4857       56445.784      15984.03       30           
    817000  -2479.0881      20.63926      -2499.7274      1.360611       222.69493      242.23833      302.44626      327.33849      240.60313      54956.217      15562.222      27           
    818000  -2480.1297      19.268204     -2499.3979      1.360611       207.90141      307.88935      292.05663      282.67553      208.84455      57718.847      16344.53       27           
    819000  -2480.2271      19.469439     -2499.6966      1.360611       210.07271      344.39473      267.35912      321.18726      235.04762      54750.606      15503.998      20           
    820000  -2478.3786      20.4778       -2498.8564      1.360611       220.95279      260.28013      307.75869      310.18612      239.08851      55970.638      15849.481      22           
    821000  -2479.7519      20.004758     -2499.7567      1.360611       215.84873      258.97289      311.36525      287.58607      231.6284       55418.411      15693.104      27           
    822000  -2481.4699      19.662174     -2501.132       1.360611       212.1523       311.97768      288.69066      300.23543      230.43625      56006.511      15859.639      24           
    823000  -2480.6761      19.422348     -2500.0985      1.360611       209.56461      302.41747      287.02287      302.94575      196.40869      56722.324      16062.339      20           
    824000  -2479.654       20.637461     -2500.2914      1.360611       222.67552      314.26396      306.16943      317.49307      214.39583      55965.176      15847.934      24           
    825000  -2479.398       19.505667     -2498.9036      1.360611       210.46361      286.83593      303.55725      277.16256      223.59932      57535.037      16292.479      24           
    826000  -2478.8726      20.378268     -2499.2508      1.360611       219.87885      250.18193      317.96411      292.20073      240.2475       54937.256      15556.853      24           
    827000  -2480.0859      20.567329     -2500.6532      1.360611       221.9188       290.09833      312.58952      301.35886      248.143        56989.672      16138.045      26           
    828000  -2478.2228      21.073786     -2499.2966      1.360611       227.38341      316.25217      313.40583      316.49491      253.43611      55812.448      15804.685      27           
    829000  -2478.939       21.066907     -2500.0059      1.360611       227.30919      363.3094       319.8157       303.83088      223.19891      55982.571      15852.86       28           
    830000  -2479.4133      19.738002     -2499.1513      1.360611       212.97048      373.88805      291.74813      288.71199      227.65965      56680.439      16050.478      28           
    831000  -2477.545       20.795722     -2498.3407      1.360611       224.38314      278.99697      312.53124      318.31934      215.22041      55318.715      15664.872      33           
    832000  -2478.836       20.26739      -2499.1034      1.360611       218.6825       276.69291      316.47952      291.11576      219.98006      55251.678      15645.889      29           
    833000  -2481.0916      19.109245     -2500.2008      1.360611       206.18626      254.14262      279.35895      295.68465      244.69695      54779.23       15512.104      24           
    834000  -2481.9873      19.236964     -2501.2242      1.360611       207.56434      310.1808       303.75651      261.29422      222.82338      57570.873      16302.627      27           
    835000  -2479.5717      20.389469     -2499.9612      1.360611       219.99972      288.22305      290.99259      328.24153      234.9324       55892.727      15827.418      27           
    836000  -2478.4815      20.920325     -2499.4018      1.360611       225.72758      388.32952      303.04388      313.99631      253.09055      55646.219      15757.613      29           
    837000  -2479.3416      19.181108     -2498.5227      1.360611       206.96166      314.297        292.07225      270.97925      249.39014      54869.24       15537.592      26           
    838000  -2480.5474      19.552496     -2500.0999      1.360611       210.96889      343.75352      283.66272      296.05925      240.57538      56051.895      15872.49       27           
    839000  -2477.6174      21.245628     -2498.863       1.360611       229.23756      326.15106      317.57692      314.15318      265.04136      55665.9        15763.186      27           
    840000  -2479.609       19.551701     -2499.1607      1.360611       210.96031      367.71884      293.01506      281.53618      219.24924      55274.834      15652.446      29           
    841000  -2478.8278      20.764094     -2499.5919      1.360611       224.04187      321.34697      300.81456      327.28797      219.05179      56786.744      16080.581      26           
    842000  -2480.1151      19.764408     -2499.8795      1.360611       213.25539      252.25173      292.50723      300.21771      260.68451      55386.203      15683.983      25           
    843000  -2481.1599      18.44883      -2499.6087      1.360611       199.06047      351.14517      279.6115       251.73042      249.17251      56520.103      16005.075      31           
    844000  -2479.614       20.756133     -2500.3701      1.360611       223.95597      313.49817      302.35049      319.88708      238.46169      55909.124      15832.061      31           
    845000  -2480.6356      20.107539     -2500.7431      1.360611       216.95773      269.25477      297.36679      305.59955      253.80579      56482.625      15994.462      31           
    846000  -2478.1242      21.101749     -2499.2259      1.360611       227.68513      296.87618      303.74996      332.95428      253.43122      55886.994      15825.795      30           
    847000  -2479.8224      20.019516     -2499.842       1.360611       216.00797      299.3732       282.22504      318.55796      260.47118      55509.805      15718.984      32           
    848000  -2477.0914      21.074687     -2498.166       1.360611       227.39313      364.04992      319.73512      294.89592      274.87826      56082.016      15881.02       30           
    849000  -2479.4128      20.339593     -2499.7524      1.360611       219.46156      341.3145       292.83129      308.71496      276.7008       55934.844      15839.345      26           
    850000  -2478.3224      20.368382     -2498.6908      1.360611       219.77219      340.64418      294.87265      308.39011      269.39898      56335.063      15952.677      26           
    851000  -2478.4918      20.293032     -2498.7849      1.360611       218.95917      308.06446      303.17432      297.93194      266.9358       55384.791      15683.583      25           
    852000  -2477.451       21.851225     -2499.3022      1.360611       235.77187      286.80269      319.76013      335.8437       289.85274      57040.888      16152.548      19           
    853000  -2479.771       19.880483     -2499.6515      1.360611       214.50782      227.56181      317.54052      263.94966      287.95087      55239.804      15642.527      18           
    854000  -2478.3287      20.46652      -2498.7952      1.360611       220.83108      284.53665      286.93859      327.49045      289.55258      56131.051      15894.906      20           
    855000  -2480.7996      19.139463     -2499.939       1.360611       206.51231      415.1102       262.36301      298.65562      287.66572      55193.748      15629.485      16           
    856000  -2478.9635      20.245243     -2499.2087      1.360611       218.44354      315.73732      302.19402      292.36432      294.1622       54853.56       15533.152      15           
    857000  -2480.4653      19.0503       -2499.5156      1.360611       205.55026      323.07508      269.92299      289.48797      293.99301      57057.73       16157.318      19           
    858000  -2477.6842      21.207581     -2498.8917      1.360611       228.82704      295.04957      311.8443       314.63819      314.88684      54103.999      15320.895      19           
    859000  -2480.0157      20.90236      -2500.9181      1.360611       225.53374      274.8988       290.3825       330.32687      340.17584      57547.923      16296.128      20           
    860000  -2478.3747      21.16357      -2499.5383      1.360611       228.35217      236.52668      312.82014      309.92613      354.78262      54477.896      15426.773      23           
    861000  -2478.4641      20.34058      -2498.8047      1.360611       219.47221      237.83979      292.84781      302.72016      354.11162      55893.611      15827.669      18           
    862000  -2478.8894      19.985312     -2498.8747      1.360611       215.63891      270.73857      304.21343      269.14375      349.58326      56570.851      16019.446      16           
    863000  -2479.0633      20.154583     -2499.2179      1.360611       217.46532      244.18609      279.46712      314.86257      358.82504      55768.299      15792.183      21           
    864000  -2480.341       19.083895     -2499.4249      1.360611       205.91274      322.10284      271.11885      278.67322      342.41316      56120.633      15891.955      24           
    865000  -2478.5719      21.238581     -2499.8105      1.360611       229.16153      334.0511       300.65159      322.83649      341.94297      54698.889      15489.353      24           
    866000  -2479.3316      20.192462     -2499.5241      1.360611       217.87403      432.79909      291.02198      284.25028      328.95217      57198.755      16197.252      24           
    867000  -2478.437       21.81649      -2500.2535      1.360611       235.39709      449.61935      295.06466      342.49571      326.20358      55009.669      15577.358      26           
    868000  -2478.6032      19.803193     -2498.4064      1.360611       213.67388      411.97073      289.63895      271.79183      326.25982      58269.301      16500.404      27           
    869000  -2480.0739      19.329072     -2499.403       1.360611       208.55817      284.74877      276.69541      286.92337      332.77731      54882.704      15541.405      21           
    870000  -2479.9207      20.62186      -2500.5425      1.360611       222.50718      381.08545      300.44795      287.25907      368.56894      56969.902      16132.447      22           
    871000  -2478.7265      21.240563     -2499.967       1.360611       229.18291      263.0016       287.80105      339.21286      393.78995      55276.683      15652.97       24           
    872000  -2480.569       20.627649     -2501.1966      1.360611       222.56965      426.0288       300.91746      282.83238      355.35864      56515.707      16003.83       24           
    873000  -2478.7082      21.633819     -2500.3421      1.360611       233.42609      342.1174       316.38299      307.16716      379.3982       56807.806      16086.546      22           
    874000  -2480.2988      20.449904     -2500.7487      1.360611       220.6518       344.09443      296.41521      290.49906      362.27684      54743.41       15501.96       22           
    875000  -2479.2561      20.451468     -2499.7076      1.360611       220.66868      279.9715       295.88402      299.59523      350.04456      56286.547      15938.938      17           
    876000  -2478.7068      20.495406     -2499.2022      1.360611       221.14277      268.31937      296.02786      303.36113      348.05408      54851.439      15532.551      18           
    877000  -2478.1815      20.663441     -2498.8449      1.360611       222.95583      227.41577      307.01273      298.65788      344.25713      57613.595      16314.725      18           
    878000  -2480.549       18.838233     -2499.3872      1.360611       203.26208      162.96327      270.03025      283.58064      349.85787      54572.632      15453.6        19           
    879000  -2478.9835      21.014713     -2499.9982      1.360611       226.74602      340.70847      299.72452      308.44565      368.72891      57600.834      16311.111      16           
    880000  -2479.2602      19.425645     -2498.6858      1.360611       209.60018      199.18126      278.46712      287.85856      363.8244       54906.031      15548.011      18           
    881000  -2479.763       19.338124     -2499.1011      1.360611       208.65584      293.12747      277.497        278.90414      359.4188       58354.998      16524.672      20           
    882000  -2479.7849      19.53419      -2499.3191      1.360611       210.77137      298.87266      292.7521       270.02008      330.3575       54828.991      15526.195      21           
    883000  -2479.1459      20.961739     -2500.1077      1.360611       226.17444      376.20781      315.71655      289.18765      321.48888      55732.364      15782.007      20           
    884000  -2479.3122      21.141026     -2500.4532      1.360611       228.10892      296.40182      311.24014      311.97712      318.83135      56963.93       16130.756      21           
    885000  -2479.4727      19.74259      -2499.2152      1.360611       213.01997      346.9929       284.55559      286.70081      325.34689      54975.544      15567.695      20           
    886000  -2478.4841      20.899229     -2499.3833      1.360611       225.49996      286.2342       298.38029      314.92007      347.36944      56913.837      16116.571      16           
    887000  -2479.9213      20.610055     -2500.5314      1.360611       222.37981      290.03493      299.74125      297.71342      370.18702      55044.512      15587.225      23           
    888000  -2479.6577      21.477795     -2501.1355      1.360611       231.74262      285.41407      317.39677      305.96673      385.24635      58205.821      16482.428      25           
    889000  -2480.4905      20.03246      -2500.5229      1.360611       216.14764      298.3883       278.49097      303.45402      374.78575      55482.572      15711.272      22           
    890000  -2479.6344      21.050762     -2500.6852      1.360611       227.13498      260.06036      311.35992      305.29895      354.13934      56661.353      16045.074      24           
    891000  -2478.7566      20.675367     -2499.432       1.360611       223.08452      352.39192      303.96175      295.38219      325.45864      56703.634      16057.047      26           
    892000  -2480.3997      20.220624     -2500.6203      1.360611       218.1779       245.22411      311.52108      283.67726      307.04534      55946.328      15842.597      27           
    893000  -2478.9157      20.468798     -2499.3845      1.360611       220.85567      280.61051      309.19242      293.56279      301.24017      56594.707      16026.201      28           
    894000  -2479.1844      19.49124      -2498.6757      1.360611       210.30794      275.29274      304.02063      259.74949      311.98029      55856.678      15817.21       28           
    895000  -2480.1923      20.297357     -2500.4896      1.360611       219.00584      280.20671      289.13443      310.83379      331.35202      56300.283      15942.828      28           
    896000  -2479.8919      20.223932     -2500.1158      1.360611       218.21359      331.64034      287.02248      301.18296      348.48992      54608.894      15463.869      28           
    897000  -2481.3397      19.803417     -2501.1431      1.360611       213.67629      315.28791      305.72561      265.96558      301.99134      56382.277      15966.046      31           
    898000  -2478.5209      20.986965     -2499.5079      1.360611       226.44662      317.07709      296.48488      323.40186      333.08943      55463.421      15705.849      33           
    899000  -2480.733       20.332833     -2501.0658      1.360611       219.38862      327.937        298.61653      290.1218       340.681        56647.251      16041.08       29           
    900000  -2480.2026      19.809122     -2500.0118      1.360611       213.73785      354.11164      283.15191      294.94556      291.46155      55515.861      15720.699      31           
    901000  -2479.0666      20.067702     -2499.1343      1.360611       216.5279       254.68433      297.2688       306.00725      258.77861      55124.47       15609.867      28           
    902000  -2479.9757      20.026134     -2500.0018      1.360611       216.07938      257.42296      305.53894      292.81947      249.87979      55009.577      15577.332      27           
    903000  -2480.2489      20.124725     -2500.3737      1.360611       217.14317      213.1831       297.67108      313.49215      266.30778      56826.86       16091.941      32           
    904000  -2479.7529      21.212132     -2500.965       1.360611       228.87614      337.75066      318.16443      307.76123      258.79078      57198.453      16197.167      33           
    905000  -2479.2325      20.978146     -2500.2106      1.360611       226.35146      252.55675      309.47509      324.19437      272.60121      55467.617      15707.038      34           
    906000  -2479.8458      20.028897     -2499.8747      1.360611       216.10919      263.59816      296.0392       299.15002      293.48012      55345.43       15672.437      31           
    907000  -2480.3594      20.046729     -2500.4062      1.360611       216.3016       312.16773      314.58409      261.80363      311.98349      56626.919      16035.323      29           
    908000  -2479.8611      19.627391     -2499.4885      1.360611       211.77699      241.03714      292.3088       287.47775      314.99086      56736.096      16066.239      29           
    909000  -2479.6333      20.518703     -2500.152       1.360611       221.39414      250.69492      305.89125      299.19565      340.78346      55893.502      15827.638      32           
    910000  -2478.4823      20.794925     -2499.2772      1.360611       224.37453      254.16736      306.82717      307.20248      338.91164      55925.819      15836.789      27           
    911000  -2479.8175      20.557795     -2500.3753      1.360611       221.81593      277.59996      304.74875      302.94285      307.52244      55631.515      15753.45       27           
    912000  -2478.5229      20.752539     -2499.2754      1.360611       223.91719      249.44512      307.22684      313.21062      301.49899      56127.931      15894.022      30           
    913000  -2477.7706      21.063451     -2498.8341      1.360611       227.2719       220.42418      321.0883       307.97433      305.36142      56516.38       16004.021      27           
    914000  -2480.1467      20.751313     -2500.898       1.360611       223.90397      225.97219      296.76845      324.06021      331.02324      55298.947      15659.274      24           
    915000  -2479.595       20.926119     -2500.5212      1.360611       225.7901       349.56838      307.6604       300.05592      329.70606      56045.155      15870.582      25           
    916000  -2479.7695      20.483094     -2500.2526      1.360611       221.00992      323.73555      296.23987      303.78515      318.96081      55521.134      15722.192      29           
    917000  -2480.8098      19.728413     -2500.5382      1.360611       212.86701      254.63835      290.21193      291.48104      321.0331       57178.551      16191.531      28           
    918000  -2478.7681      20.345481     -2499.1136      1.360611       219.52509      334.92193      301.97807      292.75853      287.25464      54547.979      15446.619      32           
    919000  -2479.8445      20.382128     -2500.2267      1.360611       219.9205       266.62491      314.89489      289.97097      266.3786       56211.386      15917.654      35           
    920000  -2479.1675      20.111994     -2499.2795      1.360611       217.0058       246.85396      299.44501      307.1959       250.30494      55983.459      15853.111      37           
    921000  -2478.9379      20.581091     -2499.519       1.360611       222.0673       288.86572      308.71617      303.17293      266.78185      56498.165      15998.863      31           
    922000  -2479.8218      19.723567     -2499.5454      1.360611       212.81472      311.96427      286.37207      298.38095      255.49069      57142.996      16181.463      33           
    923000  -2478.6369      21.59825      -2500.2352      1.360611       233.04231      312.87054      315.45931      329.99421      273.60452      55771.793      15793.173      34           
    924000  -2480.0188      20.316872     -2500.3357      1.360611       219.21641      292.01785      307.36043      297.18046      250.25752      57017.412      16145.901      30           
    925000  -2479.5877      20.292016     -2499.8797      1.360611       218.94821      292.33803      302.62914      303.20956      254.69337      54566.449      15451.849      28           
    926000  -2479.5854      20.201144     -2499.7865      1.360611       217.96771      358.87727      309.37314      281.80744      248.44818      56958.644      16129.259      26           
    927000  -2481.7982      19.064803     -2500.863       1.360611       205.70674      378.77006      280.84174      271.3887       257.49677      54324.476      15383.329      28           
    928000  -2479.1379      19.961778     -2499.0997      1.360611       215.38498      283.81026      303.28086      299.72686      207.07098      56567.842      16018.594      25           
    929000  -2478.7241      19.958047     -2498.6821      1.360611       215.34473      259.54823      281.61252      329.81749      229.57583      55496.241      15715.143      25           
    930000  -2479.92        19.574578     -2499.4946      1.360611       211.20715      264.63186      300.09335      284.45936      239.49973      56293.163      15940.811      29           
    931000  -2479.3253      20.35403      -2499.6793      1.360611       219.61733      273.72059      297.56829      313.06786      267.85754      56635.084      16037.635      25           
    932000  -2481.6771      19.259743     -2500.9369      1.360611       207.81012      218.73636      296.02555      274.18629      276.4873       55336.235      15669.834      21           
    933000  -2481.1611      18.880339     -2500.0414      1.360611       203.7164       287.66057      263.2743       301.96529      264.72874      56301.975      15943.307      22           
    934000  -2479.9267      20.092071     -2500.0188      1.360611       216.79083      201.14502      301.90586      302.83145      276.4352       54278.741      15370.378      23           
    935000  -2480.1632      19.291668     -2499.4549      1.360611       208.15459      234.30113      296.1327       274.06698      272.68131      56723.514      16062.676      19           
    936000  -2478.887       20.015663     -2498.9027      1.360611       215.9664       219.93723      302.10125      302.12871      253.64963      54304.995      15377.812      22           
    937000  -2480.5635      19.41825      -2499.9817      1.360611       209.52039      272.36752      300.72356      277.58275      233.47399      55769.277      15792.46       25           
    938000  -2481.3618      19.017184     -2500.379       1.360611       205.19294      249.8219       277.18529      296.06616      241.02966      55336.256      15669.839      22           
    939000  -2479.424       20.966485     -2500.3905      1.360611       226.22565      331.79728      309.78651      316.46926      249.2256       55735.882      15783.003      26           
    940000  -2480.8222      19.383021     -2500.2052      1.360611       209.14028      254.20418      293.12402      287.93834      243.13146      56379.14       15965.158      27           
    941000  -2478.515       21.133336     -2499.6484      1.360611       228.02595      304.19247      322.0109       311.86826      237.09879      54475.408      15426.069      25           
    942000  -2480.0599      19.763849     -2499.8238      1.360611       213.24936      325.18613      293.98256      290.19899      256.39633      56749.144      16069.934      27           
    943000  -2479.455       20.358434     -2499.8134      1.360611       219.66485      286.04532      282.44111      336.28982      259.25253      54086.289      15315.88       20           
    944000  -2479.2313      20.306889     -2499.5382      1.360611       219.10869      331.67275      303.04111      301.23393      251.34424      57185.657      16193.543      19           
    945000  -2478.2583      19.73856      -2497.9968      1.360611       212.97649      222.04001      295.24504      300.84057      247.94799      54621.815      15467.528      19           
    946000  -2478.2104      20.949133     -2499.1595      1.360611       226.03841      375.08064      319.98622      298.60423      253.93943      56612.2        16031.155      18           
    947000  -2479.3814      20.17679      -2499.5581      1.360611       217.70494      255.15574      325.35787      267.29009      263.06803      56104.583      15887.41       17           
    948000  -2479.3933      20.125261     -2499.5186      1.360611       217.14894      253.98086      295.65638      309.34002      268.28431      56181.903      15909.305      27           
    949000  -2480.4844      19.626195     -2500.1106      1.360611       211.76409      323.67093      290.04662      285.03162      277.78429      56417.643      15976.061      28           
    950000  -2478.9707      21.115843     -2500.0866      1.360611       227.8372       329.35912      320.93816      301.75452      268.35618      54956.646      15562.344      32           
    951000  -2480.2985      20.029022     -2500.3275      1.360611       216.11054      261.05786      299.75562      297.87491      269.69591      57886.008      16391.865      28           
    952000  -2477.8332      21.551936     -2499.3852      1.360611       232.54258      243.676        318.27215      330.36474      294.18794      54535.366      15443.048      25           
    953000  -2480.2184      19.871251     -2500.0896      1.360611       214.40821      308.14739      299.6735       283.52377      277.8128       57152.881      16184.262      25           
    954000  -2480.8248      19.946147     -2500.771       1.360611       215.21633      293.03199      301.45418      284.92376      283.60742      54419.542      15410.249      23           
    955000  -2478.2347      21.555702     -2499.7904      1.360611       232.58322      278.37425      314.02722      331.54805      300.99783      57149.222      16183.226      27           
    956000  -2478.0596      20.929634     -2498.9893      1.360611       225.82802      356.78361      316.71185      297.10578      277.97864      55680.059      15767.196      22           
    957000  -2479.4565      20.256966     -2499.7135      1.360611       218.57002      262.5707       317.07769      279.06967      279.61801      56192.184      15912.217      22           
    958000  -2480.5902      19.284689     -2499.8749      1.360611       208.07928      302.94263      277.34256      292.27801      283.05133      56481.818      15994.234      23           
    959000  -2478.4281      20.822448     -2499.2505      1.360611       224.67151      254.78518      300.94714      331.4657       258.14868      55612.366      15748.027      24           
    960000  -2478.1184      20.297432     -2498.4159      1.360611       219.00665      346.35925      285.48312      327.04037      243.59258      56934.99       16122.561      19           
    961000  -2479.473       19.554806     -2499.0278      1.360611       210.99381      290.07516      292.74111      287.00608      260.93227      53733.404      15215.952      22           
    962000  -2479.7473      20.232513     -2499.9798      1.360611       218.30618      267.83007      306.20333      295.10336      272.34356      57082.319      16164.281      26           
    963000  -2479.4768      20.607924     -2500.0847      1.360611       222.35682      238.08224      297.27807      324.54254      286.32233      55696.691      15771.906      24           
    964000  -2479.4312      20.710506     -2500.1417      1.360611       223.46366      220.52502      307.29333      315.1616       289.96297      56495.069      15997.986      23           
    965000  -2481.859       19.310906     -2501.1699      1.360611       208.36217      270.56791      281.69346      288.23399      295.79476      55345.883      15672.565      23           
    966000  -2480.5101      19.912193     -2500.4223      1.360611       214.84997      266.43097      271.27911      329.21367      295.04034      55587.822      15741.077      26           
    967000  -2478.8457      20.457634     -2499.3033      1.360611       220.73521      254.52338      304.54387      308.85872      269.18101      56825.219      16091.476      22           
    968000  -2480.4291      20.517391     -2500.9465      1.360611       221.37998      288.9644       304.20322      308.86533      264.48657      56697.693      16055.364      21           
    969000  -2479.8854      20.249938     -2500.1354      1.360611       218.4942       242.99237      306.63434      297.48848      274.97265      56841.568      16096.106      23           
    970000  -2479.0516      20.925772     -2499.9773      1.360611       225.78636      280.94232      315.81022      304.23218      290.15172      55092.803      15600.9        25           
    971000  -2478.997       19.757348     -2498.7544      1.360611       213.17922      309.24119      284.61398      296.99418      299.57362      56916.503      16117.326      25           
    972000  -2479.3557      20.886451     -2500.2421      1.360611       225.36209      320.27565      299.76181      320.39752      292.77051      55292.833      15657.543      28           
    973000  -2480.8623      19.362626     -2500.2249      1.360611       208.92022      283.07999      289.86581      275.87771      302.32326      55357.77       15675.932      29           
    974000  -2478.7325      20.646589     -2499.3791      1.360611       222.77401      345.46309      307.14182      295.10727      297.11185      56624.957      16034.767      29           
    975000  -2478.4073      20.26085      -2498.6681      1.360611       218.61193      302.84421      288.0307       316.9691       276.89984      54975.365      15567.644      31           
    976000  -2480.3418      20.226122     -2500.5679      1.360611       218.23723      252.8833       307.29924      290.40616      298.16465      56271.357      15934.637      26           
    977000  -2479.7592      21.016277     -2500.7755      1.360611       226.76289      183.56638      319.89245      311.20019      298.45362      55552.534      15731.084      22           
    978000  -2478.2045      20.691096     -2498.8956      1.360611       223.25423      282.4169       308.91298      304.02811      294.24309      56685.295      16051.853      27           
    979000  -2477.8897      21.867561     -2499.7573      1.360611       235.94814      243.72004      352.68642      293.30243      296.00516      54300.023      15376.404      26           
    980000  -2480.5702      19.241061     -2499.8112      1.360611       207.60854      168.03562      297.45029      274.97791      298.09974      57134.493      16179.055      25           
    981000  -2479.559       21.017609     -2500.5766      1.360611       226.77727      315.74288      312.94768      307.02952      294.73941      54965.913      15564.967      26           
    982000  -2478.5917      20.450271     -2499.042       1.360611       220.65577      273.38516      302.35196      305.21565      292.43363      55675.031      15765.772      24           
    983000  -2477.4607      21.58931      -2499.05        1.360611       232.94584      343.04621      322.37625      312.94687      294.67944      55981.306      15852.501      26           
    984000  -2477.9592      21.382185     -2499.3414      1.360611       230.711        260.79525      290.84791      358.44349      315.2033       56240.746      15925.968      28           
    985000  -2479.249       20.386025     -2499.635       1.360611       219.96256      294.27161      306.81086      290.52011      308.63234      55501.055      15716.506      30           
    986000  -2479.5908      20.020512     -2499.6113      1.360611       216.01872      327.54014      293.83199      291.81526      291.30239      55247.568      15644.725      33           
    987000  -2479.0161      20.075404     -2499.0915      1.360611       216.611        290.31584      308.82938      278.18583      291.76767      56117.585      15891.092      29           
    988000  -2479.9296      21.10378      -2501.0334      1.360611       227.70704      295.66808      320.92481      301.3114       294.21612      55961.402      15846.865      31           
    989000  -2478.8932      20.090893     -2498.9841      1.360611       216.77812      279.23346      280.74658      317.73685      319.89248      55874.744      15822.326      35           
    990000  -2479.589       20.66803      -2500.257       1.360611       223.00535      261.1529       312.64732      298.84909      307.39405      55526.367      15723.674      30           
    991000  -2480.7701      19.31023      -2500.0803      1.360611       208.35487      252.96695      287.95908      279.70265      317.60004      56111.683      15889.421      34           
    992000  -2479.7314      21.210774     -2500.9422      1.360611       228.86149      346.1819       304.64837      321.05889      303.03342      56165.056      15904.535      28           
    993000  -2480.1886      20.101633     -2500.2903      1.360611       216.894        301.31207      288.88039      306.09198      298.11056      56289.938      15939.898      23           
    994000  -2480.4862      20.30763      -2500.7939      1.360611       219.11668      310.81602      293.32593      302.68411      318.97282      56515.691      16003.826      24           
    995000  -2480.3996      20.350472     -2500.7501      1.360611       219.57895      310.81061      292.39364      307.36203      309.54938      55736.007      15783.039      30           
    996000  -2478.9734      20.556277     -2499.5297      1.360611       221.79955      295.30305      291.98683      315.62474      325.79221      57140.384      16180.723      24           
    997000  -2481.5897      19.838461     -2501.4282      1.360611       214.05441      315.70765      302.17886      271.72427      308.2195       55825.893      15808.492      28           
    998000  -2479.692       20.106097     -2499.7981      1.360611       216.94217      232.98496      294.1075       307.35685      308.19996      55836.088      15811.379      30           
    999000  -2479.6825      20.21259      -2499.8951      1.360611       218.09122      264.44337      305.98181      289.40649      310.3303       55591.252      15742.048      32           
   1000000  -2479.5337      20.10959      -2499.6433      1.360611       216.97986      231.75087      288.93361      319.27062      283.75158      55925.895      15836.81       30           
   1001000  -2479.2806      21.046694     -2500.3273      1.360611       227.09109      225.97088      305.77401      329.08935      315.57291      55695.531      15771.577      31           
   1002000  -2479.1787      20.546576     -2499.7253      1.360611       221.69488      328.156        309.48306      285.71112      321.49049      56108.661      15888.565      33           
   1003000  -2479.9698      20.340798     -2500.3106      1.360611       219.47457      322.09884      304.28676      283.30444      338.33516      56470.527      15991.037      33           
   1004000  -2479.0264      21.200409     -2500.2268      1.360611       228.74966      373.48197      302.71185      316.15447      317.36075      56213.555      15918.268      31           
   1005000  -2479.4397      21.374038     -2500.8137      1.360611       230.62308      247.13247      313.9009       323.83981      324.47371      56859.487      16101.18       26           
   1006000  -2480.273       19.956971     -2500.23        1.360611       215.33312      258.57184      282.12938      311.43719      323.90355      56300.644      15942.93       27           
   1007000  -2479.6533      19.933668     -2499.587       1.360611       215.08168      340.14525      292.74373      286.55063      288.18988      56148.356      15899.806      39           
   1008000  -2479.5297      21.606614     -2501.1364      1.360611       233.13255      231.18293      326.37929      320.73671      317.46339      55864.903      15819.539      31           
   1009000  -2480.2671      20.347292     -2500.6143      1.360611       219.54463      270.24357      309.74837      289.80874      300.41734      56556.522      16015.388      31           
   1010000  -2479.214       21.072541     -2500.2865      1.360611       227.36997      287.11181      309.918        315.56232      310.23205      55473.304      15708.648      34           
   1011000  -2480.4996      20.104249     -2500.6038      1.360611       216.92223      268.84609      272.69096      327.60562      340.00936      56189.338      15911.411      29           
   1012000  -2480.2758      20.696156     -2500.9719      1.360611       223.30883      290.45889      293.57557      318.57594      342.92581      56562.73       16017.146      32           
   1013000  -2480.9972      20.146432     -2501.1436      1.360611       217.37738      323.27379      280.54761      314.78513      307.57837      56873.509      16105.151      32           
   1014000  -2479.7026      20.212657     -2499.9153      1.360611       218.09193      308.45976      300.28427      291.27065      306.16936      55328.535      15667.653      29           
   1015000  -2478.2947      21.651624     -2499.9464      1.360611       233.6182       322.17756      314.09443      327.20227      311.32261      55462.829      15705.682      29           
   1016000  -2480.0891      20.265502     -2500.3546      1.360611       218.66213      254.93885      298.66277      300.51681      326.85727      56511.789      16002.721      30           
   1017000  -2479.2355      20.396455     -2499.632       1.360611       220.07509      266.78567      298.47051      304.86086      324.73822      54805.743      15519.612      30           
   1018000  -2479.6983      20.367192     -2500.0655      1.360611       219.75935      196.95412      290.36864      319.70533      335.3347       56975.845      16134.13       23           
   1019000  -2478.7142      20.443948     -2499.1581      1.360611       220.58754      206.16407      297.33239      312.80622      333.56813      56171.012      15906.221      25           
   1020000  -2480.8905      19.295755     -2500.1863      1.360611       208.19868      329.27774      275.01458      278.31881      361.11569      56833.881      16093.929      29           
   1021000  -2478.8178      20.505375     -2499.3231      1.360611       221.25032      279.37748      311.78009      280.27872      361.31709      56719.118      16061.431      26           
   1022000  -2478.4454      21.644584     -2500.09        1.360611       233.54225      295.41132      332.37983      294.3059       359.00633      56106.372      15887.917      24           
   1023000  -2479.3044      19.933372     -2499.2377      1.360611       215.07849      351.79727      301.60688      257.84733      383.27577      56868.349      16103.69       24           
   1024000  -2478.0217      21.705698     -2499.7274      1.360611       234.20166      267.57497      321.93351      316.4662       357.36086      55914.164      15833.489      25           
   1025000  -2477.6435      21.510479     -2499.154       1.360611       232.09527      277.19767      317.27783      316.30458      342.85246      55694.671      15771.334      24           
   1026000  -2477.9884      22.084191     -2500.0726      1.360611       238.28554      239.12897      335.7472       316.73496      340.53538      55528.063      15724.154      22           
   1027000  -2478.4423      21.067712     -2499.51        1.360611       227.31787      344.32283      310.50339      304.84757      322.51782      56027.816      15865.672      16           
   1028000  -2478.3504      21.002191     -2499.3526      1.360611       226.6109       404.79604      296.10486      321.44799      310.42506      55123.114      15609.483      16           
   1029000  -2476.0318      21.692372     -2497.7242      1.360611       234.05787      407.53764      308.02112      330.26741      308.8613       56570.609      16019.377      20           
   1030000  -2478.6303      20.149974     -2498.7803      1.360611       217.4156       270.47777      308.11502      277.61681      319.74515      55608.161      15746.836      18           
   1031000  -2478.7465      20.935247     -2499.6817      1.360611       225.88859      322.62872      295.71275      321.73566      327.77023      56605.364      16029.219      21           
   1032000  -2480.7443      19.192604     -2499.9369      1.360611       207.0857       299.12859      274.03484      284.92654      330.27243      55506.614      15718.081      27           
   1033000  -2480.9434      20.027429     -2500.9708      1.360611       216.09336      314.12287      273.99306      307.04427      380.91108      56470.669      15991.077      24           
   1034000  -2480.1387      19.750546     -2499.8893      1.360611       213.10582      309.40752      290.60885      270.07381      389.40472      56378.9        15965.09       24           
   1035000  -2479.2617      19.807782     -2499.0695      1.360611       213.72339      313.63257      274.84134      300.50395      362.17107      55718.303      15778.026      24           
   1036000  -2480.1834      20.751669     -2500.9351      1.360611       223.90781      279.48792      306.29474      294.48367      376.59216      56996.37       16139.942      25           
   1037000  -2479.6123      20.239334     -2499.8516      1.360611       218.37978      304.80836      292.383        292.47043      366.37569      56189.492      15911.454      27           
   1038000  -2478.475       21.726332     -2500.2014      1.360611       234.42429      252.08754      299.08665      343.61092      403.86843      56273.251      15935.173      24           
   1039000  -2477.9319      21.453481     -2499.3854      1.360611       231.48027      295.02405      322.70478      299.20343      362.47131      56089.658      15883.184      22           
   1040000  -2478.0615      20.931152     -2498.9926      1.360611       225.8444       229.81643      319.14844      290.65694      354.92884      55741.629      15784.631      20           
   1041000  -2478.6362      21.109234     -2499.7455      1.360611       227.76588      241.1706       317.68661      301.3688       343.15539      56421.68       15977.204      20           
   1042000  -2479.8368      19.737777     -2499.5746      1.360611       212.96805      391.66493      306.10968      256.48193      300.75679      56830.342      16092.927      19           
   1043000  -2481.7156      19.533351     -2501.249       1.360611       210.76232      304.73503      284.36298      289.25817      296.31068      55873.72       15822.036      22           
   1044000  -2480.2027      19.454752     -2499.6574      1.360611       209.91424      254.08169      281.23381      300.12612      276.8562       55128.467      15610.999      20           
   1045000  -2480.587       21.339097     -2501.9261      1.360611       230.24608      378.86597      310.51812      318.90546      285.11697      56541.78       16011.214      23           
   1046000  -2479.7027      20.608952     -2500.3117      1.360611       222.36791      370.33111      301.11878      306.79587      262.00606      55553.66       15731.403      26           
   1047000  -2481.4049      18.777065     -2500.182       1.360611       202.60209      252.23049      270.60858      289.79824      269.93703      57161.135      16186.599      22           
   1048000  -2481.0434      19.726471     -2500.7698      1.360611       212.84605      295.64202      297.35473      287.59199      257.5334       56169.731      15905.859      20           
   1049000  -2478.6951      20.844728     -2499.5398      1.360611       224.9119       283.90695      314.94627      310.85938      249.10233      55743.432      15785.141      23           
   1050000  -2477.922       20.99477      -2498.9167      1.360611       226.53083      333.32964      309.14427      318.44056      253.81312      55721.513      15778.935      23           
   1051000  -2479.7852      19.723985     -2499.5092      1.360611       212.81923      265.34626      299.84266      287.8643       254.98192      55888.296      15826.163      21           
   1052000  -2481.4253      19.249232     -2500.6745      1.360611       207.69671      273.72685      302.43407      263.08832      258.52239      56558.587      16015.973      21           
   1053000  -2479.4343      20.197557     -2499.6318      1.360611       217.92901      279.95327      296.97318      314.61008      234.32656      55884.129      15824.983      21           
   1054000  -2478.8617      20.076049     -2498.9377      1.360611       216.61795      285.35087      307.1668       288.87502      256.09022      56104.613      15887.419      20           
   1055000  -2478.4998      20.659149     -2499.1589      1.360611       222.90953      307.59096      315.55287      300.02745      244.14924      54356.956      15392.526      27           
   1056000  -2479.1009      20.485144     -2499.586       1.360611       221.03204      281.10187      306.57132      306.62865      255.35649      55924.321      15836.365      24           
   1057000  -2479.8346      19.558887     -2499.3935      1.360611       211.03784      224.70069      293.14816      288.19916      283.97542      56016.813      15862.556      20           
   1058000  -2481.1936      19.965092     -2501.1587      1.360611       215.42075      339.0031       303.5172       283.34906      263.00523      56619.27       16033.157      18           
   1059000  -2480.0396      19.403556     -2499.4432      1.360611       209.36184      406.19084      291.99644      272.55357      232.08241      56855.246      16099.979      24           
   1060000  -2479.8737      20.208742     -2500.0825      1.360611       218.0497       404.25211      295.95833      297.10119      256.84245      55533.559      15725.711      22           
   1061000  -2479.5673      20.621323     -2500.1887      1.360611       222.50139      364.14833      298.35974      313.48444      257.06957      55588.353      15741.227      25           
   1062000  -2478.7562      21.393308     -2500.1495      1.360611       230.83101      321.87635      331.15591      297.30052      285.7002       55416.209      15692.48       24           
   1063000  -2478.6926      21.274842     -2499.9674      1.360611       229.55278      286.03527      302.71816      338.99823      282.51796      56573.087      16020.079      22           
   1064000  -2480.0038      19.391902     -2499.3957      1.360611       209.2361       284.81707      283.89766      290.84025      274.67819      55646.237      15757.618      24           
   1065000  -2479.0625      20.131031     -2499.1935      1.360611       217.21121      326.75584      279.32856      318.35917      297.12324      55457.327      15704.124      23           
   1066000  -2480.9852      18.764008     -2499.7492      1.360611       202.46121      236.12122      270.83212      288.67477      276.60425      55121.842      15609.123      19           
   1067000  -2479.2418      20.894979     -2500.1368      1.360611       225.45411      280.33553      302.27522      324.92132      280.69308      56343.511      15955.069      19           
   1068000  -2478.6852      20.251818     -2498.937       1.360611       218.51448      282.39069      287.9422       317.571        288.9063       55821.769      15807.324      20           
   1069000  -2479.6463      20.265265     -2499.9115      1.360611       218.65957      315.4911       301.49211      291.28662      305.26435      55675.966      15766.037      19           
   1070000  -2478.8283      21.377334     -2500.2056      1.360611       230.65865      327.78432      332.33176      293.27803      292.20421      55452.556      15702.773      24           
   1071000  -2478.6469      19.851444     -2498.4984      1.360611       214.1945       140.36614      295.58972      303.52381      288.50289      54868.98       15537.519      19           
   1072000  -2479.0107      20.703523     -2499.7143      1.360611       223.38832      215.90209      321.25834      295.41228      279.93141      56530.735      16008.086      19           
   1073000  -2479.5624      20.506707     -2500.0691      1.360611       221.2647       312.68256      302.20108      304.5461       287.00332      55866.897      15820.104      19           
   1074000  -2478.9844      20.332736     -2499.3172      1.360611       219.38757      295.32869      302.78092      298.54073      285.62982      57010.166      16143.849      20           
   1075000  -2479.316       20.483818     -2499.7998      1.360611       221.01773      217.22924      316.73808      294.07057      273.68607      55559.241      15732.983      19           
   1076000  -2480.4575      19.718353     -2500.1759      1.360611       212.75846      250.87437      303.68964      272.8586       301.50629      55933.725      15839.028      20           
   1077000  -2479.3017      21.059638     -2500.3614      1.360611       227.23075      306.82277      309.06484      312.74866      309.38702      56354.617      15958.214      19           
   1078000  -2478.9998      20.102136     -2499.1019      1.360611       216.89943      373.53652      290.18074      297.88441      295.62726      56552.815      16014.338      19           
   1079000  -2480.3046      20.897119     -2501.2018      1.360611       225.4772       284.34791      307.13525      316.51912      284.9386       56976.023      16134.18       20           
   1080000  -2478.94        20.614145     -2499.5541      1.360611       222.42394      340.771        301.00021      309.37949      275.79931      56657.297      16043.925      22           
   1081000  -2478.2348      19.71804      -2497.9529      1.360611       212.75509      350.93779      294.20553      283.17992      271.26549      55884.742      15825.157      20           
   1082000  -2479.3432      20.479631     -2499.8228      1.360611       220.97255      236.41803      300.26372      316.22516      278.73562      56056.092      15873.679      22           
   1083000  -2479.4447      20.107971     -2499.5527      1.360611       216.96239      243.69612      296.16242      302.72845      289.8357       56406.743      15972.974      18           
   1084000  -2480.0428      19.537438     -2499.5802      1.360611       210.80642      267.81109      288.41217      285.45803      305.3774       56217.5        15919.386      20           
   1085000  -2480.0037      19.310147     -2499.3139      1.360611       208.35397      354.88819      263.21368      301.75817      316.66329      57227.735      16205.459      22           
   1086000  -2479.5473      19.881452     -2499.4287      1.360611       214.51828      274.34459      298.57689      280.75504      323.99198      55870.275      15821.06       23           
   1087000  -2480.0827      20.368333     -2500.451       1.360611       219.77166      334.46789      287.26299      314.73133      305.54289      57717.511      16344.151      19           
   1088000  -2479.1621      19.740909     -2498.903       1.360611       213.00184      333.12054      279.37158      301.0296       307.2817       58088.685      16449.258      15           
   1089000  -2479.0252      21.260226     -2500.2854      1.360611       229.39507      295.75578      328.93856      294.53882      300.60365      56394.109      15969.397      17           
   1090000  -2479.3985      19.543763     -2498.9422      1.360611       210.87465      274.05436      291.16585      283.2138       295.47263      55892.362      15827.315      21           
   1091000  -2477.757       22.008708     -2499.7657      1.360611       237.47109      310.84714      326.13576      329.70951      293.33648      56746.802      16069.271      28           
   1092000  -2478.4207      21.117501     -2499.5382      1.360611       227.85509      390.94025      320.06295      294.98119      282.44096      55933.77       15839.041      23           
   1093000  -2480.1184      19.287435     -2499.4058      1.360611       208.10891      344.54658      277.71091      283.17698      297.97329      55531.174      15725.035      24           
   1094000  -2478.203       21.187827     -2499.3908      1.360611       228.6139       290.92364      314.95058      309.94937      315.26379      55996.136      15856.701      22           
   1095000  -2479.4187      20.050076     -2499.4688      1.360611       216.33771      405.53508      273.674        312.62802      290.3917       55857.413      15817.418      28           
   1096000  -2479.0514      20.193296     -2499.2447      1.360611       217.88304      228.89155      305.52019      294.15036      304.23992      55531.118      15725.019      27           
   1097000  -2479.4446      19.66411      -2499.1087      1.360611       212.17319      333.68706      305.62031      257.35186      307.73873      55946.343      15842.601      25           
   1098000  -2477.8424      21.316245     -2499.1586      1.360611       229.99951      256.53663      323.23905      309.88212      306.70915      55139.934      15614.246      27           
   1099000  -2479.1586      19.968624     -2499.1273      1.360611       215.45885      235.44979      325.97653      259.02355      291.16555      56262.929      15932.25       34           
   1100000  -2478.5596      20.83068      -2499.3903      1.360611       224.76032      280.69275      296.8984       326.20604      303.43619      55770.411      15792.781      28           
   1101000  -2479.2414      20.692274     -2499.9337      1.360611       223.26694      316.70349      301.41712      310.47225      293.5117       56560.458      16016.503      28           
   1102000  -2479.1284      20.6644       -2499.7928      1.360611       222.96618      286.56478      329.1471       275.39736      278.69096      55964.004      15847.602      26           
   1103000  -2478.2463      21.052654     -2499.2989      1.360611       227.1554       331.32069      300.15129      331.59719      260.3946       56917.074      16117.488      27           
   1104000  -2478.6357      21.197658     -2499.8334      1.360611       228.71997      358.59528      313.89336      314.55523      245.83453      55459.544      15704.752      29           
   1105000  -2479.1617      20.842117     -2500.0038      1.360611       224.88373      313.81324      314.19861      309.02785      228.88227      56222.312      15920.748      28           
   1106000  -2480.5674      20.115252     -2500.6827      1.360611       217.04096      303.80699      316.65601      276.21939      237.16396      56493.679      15997.593      26           
   1107000  -2479.7856      20.212865     -2499.9985      1.360611       218.09419      317.98364      295.68188      305.00175      255.6618       55842.694      15813.25       31           
   1108000  -2481.0295      19.549363     -2500.5789      1.360611       210.93508      324.58216      294.93298      278.29332      253.34131      57204.149      16198.78       30           
   1109000  -2480.3075      19.80637      -2500.1139      1.360611       213.70816      290.85232      286.55668      308.55382      245.06907      56042.292      15869.771      25           
   1110000  -2479.7522      20.314512     -2500.0667      1.360611       219.19094      300.3066       300.76057      307.29895      244.83883      56722.577      16062.411      26           
   1111000  -2479.3909      19.925882     -2499.3168      1.360611       214.99767      270.56314      292.33439      306.81836      250.59193      55944.884      15842.188      24           
   1112000  -2479.6084      19.914582     -2499.523       1.360611       214.87575      296.16191      307.16928      276.14187      277.33641      56621.781      16033.868      22           
   1113000  -2479.4153      19.833798     -2499.2491      1.360611       214.0041       300.19878      286.75447      310.16379      234.50378      55852.162      15815.931      25           
   1114000  -2478.8731      20.482878     -2499.356       1.360611       221.00759      303.00944      303.31165      309.94084      242.29054      56179.58       15908.648      30           
   1115000  -2479.3748      20.816217     -2500.191       1.360611       224.60428      320.20822      318.60109      298.6865       234.15448      55329.344      15667.882      34           
   1116000  -2479.7391      20.294772     -2500.0339      1.360611       218.97795      303.57011      297.41869      306.88853      262.05276      55281.564      15654.352      30           
   1117000  -2480.3032      20.721839     -2501.0251      1.360611       223.58594      329.45588      322.60789      281.05829      274.43162      56501.702      15999.864      30           
   1118000  -2478.0488      21.129717     -2499.1785      1.360611       227.98689      238.93453      312.08778      327.44218      280.18412      55611.079      15747.662      33           
   1119000  -2478.5365      21.196336     -2499.7328      1.360611       228.70571      301.78078      314.47755      312.05132      305.93443      55907.567      15831.62       33           
   1120000  -2479.6909      20.458673     -2500.1496      1.360611       220.74642      314.82113      304.44354      297.01453      287.66078      54495.209      15431.676      34           
   1121000  -2478.5193      21.719088     -2500.2384      1.360611       234.34613      272.5503       326.70698      324.75604      284.79945      55667.026      15763.505      34           
   1122000  -2479.02        20.028569     -2499.0486      1.360611       216.10565      311.63748      306.18555      279.29538      277.98507      56177.417      15908.035      30           
   1123000  -2477.4785      21.633401     -2499.1119      1.360611       233.42158      349.7834       323.98491      307.64652      312.48356      55349.991      15673.729      29           
   1124000  -2478.7522      20.629461     -2499.3817      1.360611       222.58919      345.15883      306.55906      284.05969      361.83063      57002.45       16141.664      27           
   1125000  -2480.4837      20.045504     -2500.5292      1.360611       216.28838      303.44328      289.09117      284.6973       388.38457      55195.368      15629.944      26           
   1126000  -2480.0106      19.392954     -2499.4035      1.360611       209.24745      271.11467      279.73991      273.62879      417.31911      56765.622      16074.6        27           
   1127000  -2478.636       20.239491     -2498.8755      1.360611       218.38148      313.60491      275.36266      309.0784       410.20581      55915.095      15833.752      26           
   1128000  -2481.4599      19.05056      -2500.5104      1.360611       205.55306      190.50829      275.41133      277.71386      389.61638      57188.601      16194.377      23           
   1129000  -2479.1558      20.967637     -2500.1234      1.360611       226.23808      317.23489      307.48499      298.62985      369.34507      55172.346      15623.424      30           
   1130000  -2479.5609      20.182605     -2499.7435      1.360611       217.76768      333.29659      287.43417      301.98463      323.78355      56264.295      15932.637      27           
   1131000  -2477.412       19.856909     -2497.2689      1.360611       214.25347      280.7492       296.3107       282.73789      328.41952      56022.533      15864.176      30           
   1132000  -2476.2077      22.167991     -2498.3757      1.360611       239.18974      416.43461      328.63837      307.13249      356.21497      55285.509      15655.469      23           
   1133000  -2476.7453      22.552851     -2499.2982      1.360611       243.34232      388.1043       350.71579      291.88735      365.78906      56640.408      16039.143      23           
   1134000  -2479.2159      20.735376     -2499.9513      1.360611       223.73201      284.76016      302.09442      301.92322      362.35989      55906.792      15831.401      23           
   1135000  -2478.3248      20.997227     -2499.322       1.360611       226.55735      282.53099      310.90089      299.03096      370.09741      56619.836      16033.317      25           
   1136000  -2480.319       19.856499     -2500.1755      1.360611       214.24904      325.39715      280.74778      300.89273      318.05662      55255.521      15646.977      28           
   1137000  -2479.9601      19.465088     -2499.4252      1.360611       210.02577      300.18484      279.42814      290.55635      318.14578      57113.901      16173.224      26           
   1138000  -2479.1009      20.317608     -2499.4185      1.360611       219.22435      336.29825      273.30954      329.03773      320.30182      55386.997      15684.208      26           
   1139000  -2480.291       19.996498     -2500.2875      1.360611       215.75961      316.34025      298.11098      286.32051      296.27827      55765.553      15791.405      27           
   1140000  -2479.5289      18.799676     -2498.3286      1.360611       202.84606      286.92343      267.1224       287.99338      289.96115      56287.791      15939.29       24           
   1141000  -2479.9412      19.158584     -2499.0998      1.360611       206.71863      324.73182      286.94905      268.82212      287.8719       55362.44       15677.254      26           
   1142000  -2480.0008      20.018524     -2500.0193      1.360611       215.99726      302.58422      306.26469      276.26873      301.093        57126.244      16176.719      25           
   1143000  -2480.1947      19.642792     -2499.8374      1.360611       211.94317      262.10921      292.29941      277.46483      335.75475      54079.422      15313.936      20           
   1144000  -2479.4497      20.017825     -2499.4675      1.360611       215.98972      275.51156      294.21901      294.65925      311.56305      56225.889      15921.761      23           
   1145000  -2477.7679      21.16364      -2498.9315      1.360611       228.35292      350.71942      306.01809      314.10252      317.39019      54715.632      15494.094      26           
   1146000  -2478.6998      21.793898     -2500.4937      1.360611       235.15332      418.9815       321.93872      311.23482      307.46563      57441.719      16266.054      23           
   1147000  -2478.0823      20.719306     -2498.8016      1.360611       223.55862      273.93428      307.17453      303.7519       319.1991       56315.542      15947.149      24           
   1148000  -2478.1417      20.805397     -2498.9471      1.360611       224.48752      306.92473      308.72119      307.39106      285.27246      54955.435      15562          29           
   1149000  -2478.0628      21.989661     -2500.0525      1.360611       237.26558      337.73454      343.48726      301.90295      277.99567      56565.165      16017.836      30           
   1150000  -2479.576       20.987638     -2500.5637      1.360611       226.45389      247.50838      333.78067      288.24372      281.13461      54956.433      15562.283      32           
   1151000  -2478.8147      20.229332     -2499.0441      1.360611       218.27186      251.51655      303.43824      297.97442      287.25066      57897.806      16395.206      24           
   1152000  -2481.8175      19.047435     -2500.8649      1.360611       205.51934      299.88389      280.17356      273.64075      309.92959      54547.399      15446.455      27           
   1153000  -2479.0027      20.607817     -2499.6105      1.360611       222.35566      296.04528      305.90456      292.91813      348.04481      58191.479      16478.367      26           
   1154000  -2479.683       20.334013     -2500.017       1.360611       219.40135      290.97117      298.65156      293.28057      344.73527      54793.686      15516.197      24           
   1155000  -2478.7173      20.754644     -2499.4719      1.360611       223.9399       287.37994      299.32044      305.98135      367.54268      57258.919      16214.289      25           
   1156000  -2478.6767      20.980899     -2499.6576      1.360611       226.38117      358.50641      304.15641      306.57895      329.22924      56098.752      15885.759      24           
   1157000  -2478.921       21.019861     -2499.9408      1.360611       226.80156      323.28563      297.22381      324.91705      317.16633      56008.616      15860.235      29           
   1158000  -2480.3685      19.150669     -2499.5192      1.360611       206.63323      337.18082      285.35376      263.0359       319.95159      56372.579      15963.3        28           
   1159000  -2478.4516      21.053418     -2499.505       1.360611       227.16365      376.15168      303.30321      313.24448      299.84979      54940.141      15557.67       27           
   1160000  -2477.6435      21.686314     -2499.3298      1.360611       233.9925       347.3284       328.6574       300.5572       331.42309      57824.941      16374.573      23           
   1161000  -2478.6292      21.033282     -2499.6625      1.360611       226.94638      350.17869      310.37713      295.33658      356.63748      55383.516      15683.222      21           
   1162000  -2477.6475      20.48588      -2498.1333      1.360611       221.03998      357.7725       310.19453      270.78504      363.80901      56947.879      16126.211      21           
   1163000  -2479.2017      21.030151     -2500.2319      1.360611       226.91259      225.90204      306.09043      309.46203      388.43613      55229.385      15639.576      23           
   1164000  -2479.1016      21.13686      -2500.2384      1.360611       228.06396      295.28335      294.47254      318.68011      418.85245      56107.517      15888.241      25           
   1165000  -2479.4425      21.082496     -2500.525       1.360611       227.47739      335.15528      306.92891      292.29811      413.90253      56105.04       15887.54       24           
   1166000  -2478.6176      21.390831     -2500.0084      1.360611       230.80428      284.8488       311.13167      307.8768       402.62482      55804.643      15802.475      25           
   1167000  -2479.645       20.696164     -2500.3411      1.360611       223.30892      331.21503      295.08929      298.90296      391.9019       56739.793      16067.286      23           
   1168000  -2478.5119      20.90788      -2499.4198      1.360611       225.59331      248.87229      321.49663      286.42293      355.63236      55828.883      15809.339      24           
   1169000  -2478.0639      20.4619       -2498.5258      1.360611       220.78124      232.41086      293.70914      312.57097      348.33921      57546.235      16295.65       24           
   1170000  -2478.9708      21.071298     -2500.0421      1.360611       227.35657      287.55191      304.94473      314.59464      340.81861      55077.081      15596.448      20           
   1171000  -2477.2565      22.018149     -2499.2747      1.360611       237.57296      294.1485       307.53248      342.0678       385.83536      56916.563      16117.343      27           
   1172000  -2479.5755      21.098032     -2500.6735      1.360611       227.64502      335.49481      305.78603      292.63132      433.86719      55515.583      15720.62       28           
   1173000  -2478.6805      21.550962     -2500.2315      1.360611       232.53207      341.55406      330.80337      275.36988      438.40501      57166.595      16188.146      34           
   1174000  -2477.9301      21.46791      -2499.3981      1.360611       231.63596      336.87011      313.9888       296.80299      426.00715      57201.072      16197.909      25           
   1175000  -2478.6257      21.140264     -2499.766       1.360611       228.1007       304.90665      307.79817      301.82929      388.16081      55146.775      15616.183      21           
   1176000  -2479.5917      19.614126     -2499.2059      1.360611       211.63387      256.75995      298.57282      259.56579      388.50757      57020.964      16146.906      25           
   1177000  -2476.4841      21.094102     -2497.5782      1.360611       227.60262      231.00424      319.32364      295.33818      377.28968      55196.075      15630.144      24           
   1178000  -2476.9746      21.279953     -2498.2545      1.360611       229.60792      259.01227      325.24428      295.66026      360.26413      57006.323      16142.761      28           
   1179000  -2478.3326      21.047373     -2499.3799      1.360611       227.09842      263.31113      309.34945      309.84398      345.59205      55535.878      15726.367      23           
   1180000  -2479.5224      20.079997     -2499.6024      1.360611       216.66055      261.41987      282.90477      303.5756       392.06428      57298.96       16225.628      27           
   1181000  -2479.7965      20.140465     -2499.9369      1.360611       217.313        314.67721      282.99256      294.94078      408.46445      55493.664      15714.413      28           
   1182000  -2478.7247      21.241343     -2499.966       1.360611       229.19133      259.56385      320.48005      293.75837      391.69728      56535.533      16009.445      25           
   1183000  -2478.5917      21.221842     -2499.8136      1.360611       228.98091      320.18462      310.62693      298.12611      402.3808       55649.938      15758.666      26           
   1184000  -2479.8349      20.549455     -2500.3844      1.360611       221.72594      307.72711      307.64351      277.09408      401.93361      56279.5        15936.943      26           
   1185000  -2477.3381      21.549924     -2498.888       1.360611       232.52087      296.90392      316.3971       307.38502      409.56013      56026.66       15865.345      31           
   1186000  -2479.7238      20.473386     -2500.1972      1.360611       220.90516      377.82798      298.74694      286.78493      347.21039      55968.798      15848.959      30           
   1187000  -2479.0919      20.532569     -2499.6245      1.360611       221.54375      264.54521      301.41453      298.53636      384.45574      57440.548      16265.722      33           
   1188000  -2478.3295      20.473931     -2498.8034      1.360611       220.91105      298.7902       311.57822      280.22689      352.50929      55818.426      15806.378      32           
   1189000  -2478.7905      20.806015     -2499.5966      1.360611       224.49419      312.48571      304.13045      302.60523      352.7684       57372.67       16246.501      33           
   1190000  -2479.3894      19.968764     -2499.3581      1.360611       215.46037      301.17217      304.74744      276.89491      299.46392      54383.317      15399.991      31           
   1191000  -2478.0458      20.656129     -2498.702       1.360611       222.87694      334.01675      304.45748      302.5767       288.54446      56951.059      16127.111      30           
   1192000  -2479.4896      21.216616     -2500.7062      1.360611       228.92452      302.37749      304.08415      334.45875      267.53291      54622.657      15467.766      28           
   1193000  -2479.8599      20.658474     -2500.5184      1.360611       222.90225      294.21958      325.55868      280.67116      271.08996      56259.046      15931.15       25           
   1194000  -2480.3718      20.309588     -2500.6814      1.360611       219.13781      259.41034      294.46095      317.63426      265.30069      56625.764      16034.996      24           
   1195000  -2480.1131      19.376273     -2499.4894      1.360611       209.06746      390.43648      271.33596      293.42739      277.22396      57023.178      16147.533      27           
   1196000  -2479.1141      20.171126     -2499.2852      1.360611       217.64382      360.45532      293.8222       298.35858      276.0365       56672.112      16048.12       25           
   1197000  -2479.9862      19.781973     -2499.7682      1.360611       213.44492      383.46491      264.41353      321.07032      291.1972       55133.333      15612.377      22           
   1198000  -2480.511       19.168953     -2499.6799      1.360611       206.83051      257.79604      273.35549      296.26197      293.50982      56588.729      16024.508      22           
   1199000  -2479.3556      21.781765     -2501.1374      1.360611       235.02241      306.82592      312.19046      341.13434      293.44429      55392.69       15685.82       23           
   1200000  -2481.2102      19.703882     -2500.914       1.360611       212.60232      296.86669      267.94377      321.39558      296.35495      56389.432      15968.073      24           
   1201000  -2479.2918      20.7412       -2500.033       1.360611       223.79484      285.80016      297.79963      321.20573      297.2521       55153.048      15617.959      23           
   1202000  -2480.9874      19.179188     -2500.1666      1.360611       206.94094      343.02521      271.42195      288.07795      296.76821      57117.414      16174.219      27           
   1203000  -2480.7812      20.058341     -2500.8396      1.360611       216.42689      354.72777      298.04392      288.32654      281.58214      55686.245      15768.948      22           
   1204000  -2479.9005      19.756538     -2499.657       1.360611       213.17047      296.40596      290.05623      292.19476      291.08173      56145.696      15899.053      20           
   1205000  -2480.757       19.229269     -2499.9863      1.360611       207.48131      272.31646      293.03538      266.14538      303.30449      56056.843      15873.892      21           
   1206000  -2480.3366      19.546816     -2499.8834      1.360611       210.9076       319.35076      285.63029      281.19999      320.39682      56984.46       16136.569      23           
   1207000  -2481.3308      18.598248     -2499.929       1.360611       200.67268      273.44676      266.60777      277.80727      308.03948      56304.963      15944.153      23           
   1208000  -2480.62        20.31806      -2500.9381      1.360611       219.22922      249.21917      295.12414      307.23969      322.1049       55722.847      15779.312      24           
   1209000  -2479.3651      20.08581      -2499.451       1.360611       216.72328      329.73087      281.99807      305.81444      328.44509      56585.71       16023.653      25           
   1210000  -2479.7338      20.650355     -2500.3842      1.360611       222.81464      316.40919      285.26701      325.27523      333.54388      55804.17       15802.341      23           
   1211000  -2479.5803      20.267724     -2499.848       1.360611       218.68611      344.75931      310.60972      270.22687      325.18716      56377.625      15964.729      23           
   1212000  -2477.55        21.698056     -2499.248       1.360611       234.1192       423.61718      314.81984      316.58757      287.4136       55416.518      15692.568      30           
   1213000  -2479.1745      20.218758     -2499.3933      1.360611       218.15776      310.42368      291.0333       300.97781      325.8365       56004.587      15859.094      27           
   1214000  -2479.0272      21.785973     -2500.8132      1.360611       235.06781      412.00946      301.02099      337.27334      326.50558      57395.641      16253.006      26           
   1215000  -2479.528       20.733773     -2500.2618      1.360611       223.71472      284.67476      306.28972      298.91324      341.25995      56041.251      15869.476      20           
   1216000  -2477.8853      20.682984     -2498.5683      1.360611       223.1667       246.80073      308.15823      293.86137      363.09195      56182.874      15909.58       21           
   1217000  -2479.3308      20.851747     -2500.1825      1.360611       224.98763      242.7225       299.9572       311.09176      383.54071      56348.428      15956.461      26           
   1218000  -2478.4412      21.148458     -2499.5897      1.360611       228.18911      272.34548      311.58632      305.86196      358.83057      57009.729      16143.725      21           
   1219000  -2477.9882      20.543383     -2498.5315      1.360611       221.66043      242.19646      297.14563      302.17667      372.32177      57010.465      16143.934      21           
   1220000  -2478.3221      21.118248     -2499.4403      1.360611       227.86315      292.83024      308.52871      302.88609      380.08732      56521.604      16005.5        22           
   1221000  -2478.5994      20.570502     -2499.1699      1.360611       221.95304      326.20174      287.84308      301.11366      406.96087      55835.965      15811.344      24           
   1222000  -2480.1355      20.247582     -2500.3831      1.360611       218.46878      339.4417       305.40434      269.91106      366.16538      56216.627      15919.138      26           
   1223000  -2479.0214      21.386217     -2500.4076      1.360611       230.7545       321.12714      303.24802      322.33849      365.12734      55764.307      15791.053      25           
   1224000  -2478.8989      21.397424     -2500.2963      1.360611       230.87542      268.15723      306.3818       325.39495      367.21624      57092.998      16167.305      26           
   1225000  -2480.0466      20.820571     -2500.8671      1.360611       224.65126      279.35027      313.0309       289.82366      374.84136      55929.067      15837.709      29           
   1226000  -2479.7322      21.052852     -2500.7851      1.360611       227.15753      311.36363      311.31148      294.50008      392.32575      56184.842      15910.138      30           
   1227000  -2478.0211      21.702042     -2499.7231      1.360611       234.1622       292.5025       315.68897      316.27589      393.63304      57671.565      16331.14       27           
   1228000  -2480.3225      19.359793     -2499.6823      1.360611       208.88965      328.79474      276.0958       279.70265      353.29104      55331.163      15668.397      24           
   1229000  -2479.2825      21.156517     -2500.439       1.360611       228.27606      311.94467      311.64794      306.5716       339.56767      55952.796      15844.428      28           
   1230000  -2480.2391      19.887675     -2500.1268      1.360611       214.58542      303.47298      284.55744      290.82185      357.28429      56371.073      15962.874      21           
   1231000  -2478.8213      20.137241     -2498.9586      1.360611       217.27821      314.23062      273.39027      318.76976      347.17211      56493.214      15997.461      20           
   1232000  -2480.5882      20.191754     -2500.7799      1.360611       217.8664       354.08734      286.15535      296.6778       352.10071      56056.593      15873.821      23           
   1233000  -2477.968       20.885975     -2498.8539      1.360611       225.35695      321.46304      309.73972      295.32063      345.81458      55253.081      15646.287      18           
   1234000  -2478.4286      19.804734     -2498.2333      1.360611       213.6905       328.21712      296.43631      272.82764      330.50212      56418.166      15976.209      24           
   1235000  -2479.4136      19.972209     -2499.3858      1.360611       215.49753      292.08024      290.28244      297.85162      306.68959      56025.2        15864.931      20           
   1236000  -2477.3015      21.282477     -2498.584       1.360611       229.63516      292.42934      308.05898      322.79602      319.84037      57534.54       16292.338      21           
   1237000  -2477.7711      21.651266     -2499.4223      1.360611       233.61434      288.32008      332.36705      305.17723      310.72485      55233.656      15640.786      25           
   1238000  -2478.8155      20.777787     -2499.5933      1.360611       224.18962      294.55947      307.48063      303.53255      314.58912      55719.298      15778.307      19           
   1239000  -2477.7537      20.942454     -2498.6962      1.360611       225.96635      272.5137       299.47299      326.26073      307.39015      54841.53       15529.745      22           
   1240000  -2478.5413      20.526439     -2499.0678      1.360611       221.4776       316.35445      298.59999      303.26805      315.98086      56915.185      16116.952      27           
   1241000  -2478.8541      19.385862     -2498.24        1.360611       209.17093      272.78435      288.42615      279.17286      304.72268      55378.99       15681.941      23           
   1242000  -2478.2388      20.722708     -2498.9615      1.360611       223.59533      325.54038      312.59421      291.97571      308.28312      56677.47       16049.638      21           
   1243000  -2478.6093      20.704287     -2499.3135      1.360611       223.39656      311.51693      310.95219      296.5232       301.86331      56963.787      16130.716      20           
   1244000  -2478.5081      20.790876     -2499.2989      1.360611       224.33084      252.96139      302.15478      320.08425      301.52137      55638.689      15755.481      24           
   1245000  -2477.4264      21.652842     -2499.0793      1.360611       233.63135      274.65016      332.11131      318.43949      255.41695      56546.567      16012.569      22           
   1246000  -2478.5766      20.367548     -2498.9441      1.360611       219.76319      230.42152      319.71818      292.51607      237.77041      55098.312      15602.46       24           
   1247000  -2478.2804      20.612171     -2498.8926      1.360611       222.40264      285.99744      320.66377      293.85658      234.54822      56667.799      16046.899      25           
   1248000  -2477.7136      20.991091     -2498.7047      1.360611       226.49114      298.92616      315.42608      316.03319      233.78217      54434.463      15414.474      24           
   1249000  -2480.7014      20.072954     -2500.7743      1.360611       216.58456      319.93298      312.23988      277.51982      248.3575       56775.811      16077.485      26           
   1250000  -2478.7003      20.417747     -2499.118       1.360611       220.30483      262.51554      304.0489       308.29829      265.38595      55861.388      15818.544      25           
   1251000  -2479.8535      20.176272     -2500.0298      1.360611       217.69935      302.77809      305.80371      289.43841      268.54092      56558.509      16015.951      26           
   1252000  -2479.8023      20.359956     -2500.1623      1.360611       219.68127      338.99415      290.89798      318.28993      260.26334      57041.031      16152.589      19           
   1253000  -2479.1717      21.048341     -2500.22        1.360611       227.10886      423.024        310.39394      310.52708      244.34055      55637.261      15755.076      22           
   1254000  -2478.1253      20.283574     -2498.4089      1.360611       218.85712      203.33118      299.03464      322.5488       241.73181      56965.45       16131.186      24           
   1255000  -2479.399       20.571079     -2499.9701      1.360611       221.95927      247.03011      325.54715      290.34238      238.47244      54605.2        15462.823      20           
   1256000  -2477.9369      20.089647     -2498.0266      1.360611       216.76468      228.54183      303.68231      300.01633      257.84033      57907.832      16398.045      19           
   1257000  -2478.4886      20.234441     -2498.7231      1.360611       218.32699      318.57771      310.13157      286.03649      260.74393      54867.173      15537.007      22           
   1258000  -2478.8143      20.637567     -2499.4519      1.360611       222.67666      304.12631      310.68785      295.43425      299.90094      55725.173      15779.971      21           
   1259000  -2479.0141      20.43533      -2499.4494      1.360611       220.49455      255.10988      301.80336      302.1934       312.79557      56194.332      15912.825      20           
   1260000  -2480.5557      19.091422     -2499.6471      1.360611       205.99396      240.78711      284.52774      273.43352      317.64951      55287.623      15656.068      22           
   1261000  -2479.593       20.33296      -2499.9259      1.360611       219.38999      314.84354      294.99494      295.49015      343.28529      57414.225      16258.268      19           
   1262000  -2482.4579      18.699116     -2501.157       1.360611       201.76102      326.95754      273.39541      261.36374      330.07574      54849.528      15532.01       22           
   1263000  -2479.7309      20.496947     -2500.2278      1.360611       221.15939      363.15975      282.88404      315.95718      331.93003      56718.267      16061.19       25           
   1264000  -2480.4699      19.551849     -2500.0217      1.360611       210.96191      407.23837      288.76891      267.34642      317.92938      54876.66       15539.694      22           
   1265000  -2479.1141      20.250561     -2499.3647      1.360611       218.50092      495.30151      288.04634      297.02011      278.2628       57254.143      16212.937      21           
   1266000  -2478.9673      20.830297     -2499.7976      1.360611       224.7562       577.75706      275.7777       325.53057      285.26013      55416.349      15692.52       23           
   1267000  -2479.0637      21.359102     -2500.4228      1.360611       230.46193      373.92621      329.95797      290.76686      281.01424      55394.472      15686.325      27           
   1268000  -2480.16        20.589503     -2500.7495      1.360611       222.15806      388.53495      276.6266       335.62354      292.44359      56644.327      16040.252      22           
   1269000  -2481.1707      19.789943     -2500.9607      1.360611       213.53091      337.24697      292.47941      286.25016      285.34933      56762.775      16073.794      23           
   1270000  -2479.7525      19.385738     -2499.1382      1.360611       209.16959      296.834        286.02248      283.80879      286.86053      55939.461      15840.652      19           
   1271000  -2479.8601      19.264853     -2499.125       1.360611       207.86526      275.65645      281.20772      289.44815      280.40689      55537.703      15726.884      21           
   1272000  -2479.0705      20.908672     -2499.9791      1.360611       225.60185      279.66549      311.01209      316.56214      264.04702      56238.372      15925.296      23           
   1273000  -2480.2286      19.083637     -2499.3122      1.360611       205.90996      249.23471      291.17316      268.94652      286.02464      55554.496      15731.64       21           
   1274000  -2479.5911      20.868514     -2500.4596      1.360611       225.16855      213.31651      302.2136       327.31535      296.05426      56068.024      15877.058      20           
   1275000  -2478.9204      21.332531     -2500.2529      1.360611       230.17523      225.91381      314.92236      318.0762       322.80237      54976.222      15567.887      15           
   1276000  -2477.8091      20.219516     -2498.0287      1.360611       218.16595      282.88038      290.72723      304.80739      319.62879      56474.495      15992.16       17           
   1277000  -2477.3029      21.66442      -2498.9674      1.360611       233.75627      303.43509      319.26133      325.74801      296.46323      54584.193      15456.874      21           
   1278000  -2476.9441      21.124073     -2498.0682      1.360611       227.92599      357.25223      293.44804      331.20351      316.56805      56771.933      16076.387      22           
   1279000  -2478.4154      20.344023     -2498.7594      1.360611       219.50936      396.80003      309.69814      278.03045      287.63168      56732.098      16065.107      20           
   1280000  -2478.449       20.646422     -2499.0955      1.360611       222.77221      349.09958      295.55059      320.57164      263.11803      56147.905      15899.678      22           
   1281000  -2479.823       20.403817     -2500.2268      1.360611       220.15453      264.76331      314.81881      291.33037      269.40481      54839.081      15529.052      24           
   1282000  -2479.8853      19.945892     -2499.8312      1.360611       215.21358      294.33955      292.09024      297.44477      289.26939      55494.273      15714.586      27           
   1283000  -2479.2595      20.484531     -2499.744       1.360611       221.02542      348.41652      288.7355       320.23882      272.01441      56085.106      15881.895      27           
   1284000  -2478.7811      20.339056     -2499.1201      1.360611       219.45577      332.24788      303.64002      298.12293      260.88278      55566.715      15735.1        22           
   1285000  -2477.801       20.336347     -2498.1373      1.360611       219.42653      244.76743      302.20538      304.5567       285.06202      55381.694      15682.706      19           
   1286000  -2478.6925      20.824634     -2499.5172      1.360611       224.69509      320.56751      305.7063       312.25967      284.54044      55844.446      15813.746      19           
   1287000  -2479.4589      20.506882     -2499.9658      1.360611       221.26658      362.37652      302.60844      301.12429      268.6309       56354.144      15958.08       23           
   1288000  -2479.2985      19.847229     -2499.1457      1.360611       214.14902      257.42593      305.50781      285.1482       252.36157      55611.611      15747.813      24           
   1289000  -2480.2178      19.97852      -2500.1963      1.360611       215.56563      325.91967      278.88991      318.94515      254.66752      56241.281      15926.12       30           
   1290000  -2478.8724      20.709474     -2499.5819      1.360611       223.45253      318.90355      304.76081      314.96144      242.052        55189.437      15628.264      27           
   1291000  -2480.9158      18.639719     -2499.5555      1.360611       201.12014      290.08818      271.29133      285.28727      238.61204      56656.037      16043.568      25           
   1292000  -2478.1643      20.355559     -2498.5199      1.360611       219.63383      311.03488      302.79175      305.20499      245.18388      56045.376      15870.645      24           
   1293000  -2478.5145      20.452775     -2498.9673      1.360611       220.68278      328.68585      283.04371      334.19782      260.58847      56231.188      15923.262      21           
   1294000  -2478.6528      21.06764      -2499.7204      1.360611       227.31709      287.39738      298.46841      340.60683      263.80423      56503.801      16000.459      20           
   1295000  -2480.8926      19.907278     -2500.7998      1.360611       214.79694      175.16289      313.02481      282.38541      264.66049      56098.953      15885.816      18           
   1296000  -2479.9255      19.731185     -2499.6566      1.360611       212.89692      173.64884      292.04913      308.51386      253.76079      56591.493      16025.291      18           
   1297000  -2479.0963      19.99299      -2499.0893      1.360611       215.72176      274.26007      302.91252      295.13184      247.60877      56140.29       15897.522      19           
   1298000  -2479.1453      20.631365     -2499.7767      1.360611       222.60974      234.32537      313.01516      311.01461      244.65279      55242.624      15643.325      18           
   1299000  -2480.007       19.84526      -2499.8522      1.360611       214.12777      246.31196      300.47614      297.26989      238.14014      55521.217      15722.216      16           
   1300000  -2477.7427      20.237469     -2497.9802      1.360611       218.35965      306.78274      304.63564      301.20797      240.25474      54923.934      15553.08       21           
   1301000  -2479.5032      19.962911     -2499.4661      1.360611       215.39721      400.07569      286.85097      301.54298      255.2223       56186.917      15910.725      22           
   1302000  -2477.6811      20.993349     -2498.6745      1.360611       226.5155       389.92267      302.07116      320.97246      272.9601       55502.77       15716.992      18           
   1303000  -2478.3686      20.442501     -2498.8111      1.360611       220.57193      290.10092      321.71928      275.65192      285.35013      56043.152      15870.015      20           
   1304000  -2477.732       21.440951     -2499.173       1.360611       231.34507      307.41058      324.90441      312.66743      273.68673      55645.642      15757.45       24           
   1305000  -2479.9548      20.721673     -2500.6765      1.360611       223.58415      337.73527      285.65823      340.43342      251.59351      56476.719      15992.79       26           
   1306000  -2479.2153      19.346033     -2498.5613      1.360611       208.74118      208.05068      277.92036      315.9285       233.43809      55772.086      15793.256      24           
   1307000  -2480.9113      19.521403     -2500.4327      1.360611       210.6334       318.51199      290.19554      293.6747       230.18101      56277.913      15936.493      20           
   1308000  -2480.1957      19.961658     -2500.1573      1.360611       215.38369      321.98206      300.49817      296.54905      231.29564      55608.198      15746.847      19           
   1309000  -2479.4099      19.636949     -2499.0469      1.360611       211.88013      281.08159      290.28307      299.54972      245.56429      55766.853      15791.774      19           
   1310000  -2478.7297      20.99102      -2499.7207      1.360611       226.49037      295.84055      322.54239      303.61492      258.29097      55157.793      15619.303      17           
   1311000  -2478.9517      20.178804     -2499.1305      1.360611       217.72667      404.16971      303.77643      292.36836      232.5182       56216.403      15919.075      20           
   1312000  -2479.6466      20.634797     -2500.2814      1.360611       222.64678      347.00488      321.98352      285.65753      249.37096      55850.243      15815.388      20           
   1313000  -2479.039       20.461194     -2499.5002      1.360611       220.77362      222.1495       318.65149      297.26871      246.09568      55071.509      15594.87       21           
   1314000  -2479.7694      18.894939     -2498.6644      1.360611       203.87393      295.61906      276.71364      292.4839       213.1808       56352.614      15957.647      23           
   1315000  -2480.8553      19.158565     -2500.0139      1.360611       206.71842      270.64737      277.46124      304.89481      212.96559      54692.651      15487.587      24           
   1316000  -2480.6092      20.24341      -2500.8527      1.360611       218.42376      331.16356      290.53992      323.5755       209.78593      57297          16225.073      24           
   1317000  -2478.8626      20.926948     -2499.7896      1.360611       225.79904      204.78525      319.22015      317.65519      238.61542      56228.426      15922.479      20           
   1318000  -2478.3373      20.567003     -2498.9043      1.360611       221.91528      330.06244      312.01343      298.23773      245.72163      56392.976      15969.076      24           
   1319000  -2478.7687      19.855652     -2498.6243      1.360611       214.2399       276.474        288.00594      308.17231      258.55458      56402.079      15971.654      24           
   1320000  -2479.7036      19.898059     -2499.6017      1.360611       214.69746      219.80413      301.52962      295.40374      269.02498      55977.301      15851.367      26           
   1321000  -2480.7524      20.072134     -2500.8245      1.360611       216.57572      265.09163      292.14351      310.91343      267.32771      56908.259      16114.991      26           
   1322000  -2480.7943      19.812211     -2500.6065      1.360611       213.77117      276.80144      276.23626      320.1075       275.94174      56637.412      16038.294      24           
   1323000  -2478.627       20.99296      -2499.62        1.360611       226.51131      234.60236      314.17956      322.62709      257.42783      56434.12       15980.727      30           
   1324000  -2480.5393      19.857857     -2500.3971      1.360611       214.26369      295.90617      287.23853      306.02101      256.13222      56095.751      15884.91       31           
   1325000  -2479.2378      20.476242     -2499.714       1.360611       220.93599      226.99196      293.64976      321.98913      315.37524      57286.68       16222.151      28           
   1326000  -2479.2752      20.171569     -2499.4468      1.360611       217.6486       266.07326      320.03676      263.7283       329.50789      55461.825      15705.397      32           
   1327000  -2478.3748      20.32327      -2498.698       1.360611       219.28544      323.62426      281.2334       320.49265      313.89284      55747.591      15786.319      29           
   1328000  -2479.051       20.108187     -2499.1592      1.360611       216.96472      322.2095       306.31107      275.27058      310.85462      55452.487      15702.753      29           
   1329000  -2480.5161      19.176566     -2499.6927      1.360611       206.91265      303.1805       283.13881      272.32851      322.40652      56644.116      16040.193      33           
   1330000  -2478.6195      21.119526     -2499.739       1.360611       227.87694      329.7665       320.34024      295.39875      305.39567      56119.99       15891.773      33           
   1331000  -2479.9328      19.944825     -2499.8776      1.360611       215.20207      323.44297      297.25567      283.7972       293.13439      56491.107      15996.864      35           
   1332000  -2478.0174      20.873931     -2498.8913      1.360611       225.227        292.9529       300.67278      318.24213      320.3565       55357.016      15675.718      32           
   1333000  -2479.3764      20.348515     -2499.725       1.360611       219.55783      266.74082      305.61268      295.06432      316.02158      55796.829      15800.262      35           
   1334000  -2478.1594      20.933614     -2499.093       1.360611       225.87097      344.1793       309.95877      301.48773      301.7204       56386.469      15967.234      32           
   1335000  -2478.7596      20.368341     -2499.1279      1.360611       219.77175      264.26376      299.46008      312.39453      267.94025      55409.866      15690.684      33           
   1336000  -2479.2146      19.504729     -2498.7194      1.360611       210.45348      221.364        298.42912      288.13641      250.87648      56885.736      16108.613      33           
   1337000  -2478.1936      21.041488     -2499.2351      1.360611       227.03492      355.93699      302.35409      314.89152      297.12536      55890.144      15826.687      35           
   1338000  -2479.1945      20.051491     -2499.246       1.360611       216.35298      323.44527      303.06674      277.07492      310.91097      55765.334      15791.343      36           
   1339000  -2479.5954      20.370539     -2499.966       1.360611       219.79546      271.64848      303.0176       302.33577      294.59884      55691.817      15770.525      38           
   1340000  -2477.7237      21.058102     -2498.7818      1.360611       227.21418      276.55638      309.69671      313.48764      339.2742       56245.9        15927.428      36           
   1341000  -2478.3211      20.284737     -2498.6058      1.360611       218.86967      257.14785      295.17138      308.18559      332.16248      55872.104      15821.578      38           
   1342000  -2479.1784      20.934847     -2500.1133      1.360611       225.88427      266.99091      328.34609      281.45238      358.50454      55632.058      15753.603      38           
   1343000  -2478.2127      21.293677     -2499.5064      1.360611       229.756        281.20151      326.0305       298.49152      334.71231      57038.139      16151.77       34           
   1344000  -2479.3083      20.227995     -2499.5363      1.360611       218.25744      256.23038      294.10539      306.87987      322.99737      54708.665      15492.122      33           
   1345000  -2479.4593      20.672105     -2500.1314      1.360611       223.04932      249.58781      319.22058      293.12576      305.25272      58601.336      16594.428      35           
   1346000  -2480.0885      20.140682     -2500.2292      1.360611       217.31534      327.4221       299.96088      287.52952      287.42117      54748.824      15503.493      36           
   1347000  -2480.1346      20.148276     -2500.2829      1.360611       217.39728      337.76115      300.22074      291.65293      266.66491      56706.695      16057.913      27           
   1348000  -2479.402       20.283114     -2499.6851      1.360611       218.85216      327.20909      280.45505      323.14119      293.32265      56229.849      15922.883      27           
   1349000  -2480.4591      19.239521     -2499.6986      1.360611       207.59193      291.19233      283.62642      280.27009      294.6211       56330.389      15951.353      27           
   1350000  -2479.4446      19.964078     -2499.4087      1.360611       215.4098       352.07105      286.59878      291.76917      320.41385      56371.971      15963.128      31           
   1351000  -2479.0481      20.907454     -2499.9555      1.360611       225.5887       308.761        301.10999      314.62183      327.44767      54930.947      15555.066      24           
   1352000  -2479.6767      20.259298     -2499.936       1.360611       218.59519      349.40311      298.50558      284.90635      334.86139      56543.507      16011.703      28           
   1353000  -2478.1165      20.369882     -2498.4864      1.360611       219.78838      326.66154      301.97018      290.16782      321.40364      55298.17       15659.054      25           
   1354000  -2479.4423      20.310926     -2499.7532      1.360611       219.15225      281.94829      300.16566      295.33239      325.42345      57567.074      16301.551      26           
   1355000  -2480.2245      20.380595     -2500.6051      1.360611       219.90397      292.71057      307.6133       284.37319      336.30395      54239.534      15359.275      30           
   1356000  -2479.6284      20.464531     -2500.0929      1.360611       220.80963      305.53476      296.73022      303.84747      326.12959      57575.683      16303.989      27           
   1357000  -2479.3655      20.06042      -2499.4259      1.360611       216.44932      239.35398      297.26328      293.97436      328.90433      55689.781      15769.949      25           
   1358000  -2480.0882      19.404868     -2499.493       1.360611       209.37599      313.56259      268.04149      299.6744       330.30516      56368.564      15962.163      29           
   1359000  -2478.8122      20.972797     -2499.785       1.360611       226.29375      284.80734      307.31391      311.65983      328.00386      55884.965      15825.22       28           
   1360000  -2479.5734      19.902989     -2499.4764      1.360611       214.75066      261.24483      295.22281      288.59889      325.19494      55772.563      15793.391      26           
   1361000  -2478.7077      20.531994     -2499.2397      1.360611       221.53754      345.32114      306.04061      288.23125      324.75728      56861.567      16101.769      23           
   1362000  -2478.0953      20.445994     -2498.5413      1.360611       220.60961      342.93928      297.28673      298.95751      318.53671      55352.687      15674.492      22           
   1363000  -2477.4523      21.615013     -2499.0673      1.360611       233.22318      332.86566      324.73256      307.75481      318.51332      57368.648      16245.362      22           
   1364000  -2478.9489      20.78072      -2499.7296      1.360611       224.22127      348.61774      310.39765      291.62825      320.69568      54254.033      15363.381      26           
   1365000  -2478.8394      20.3536       -2499.193       1.360611       219.61269      256.43436      299.68041      296.17107      341.09524      56708.539      16058.436      22           
   1366000  -2478.7176      20.814036     -2499.5316      1.360611       224.58074      264.90832      304.0132       305.97555      353.21696      55098.591      15602.539      22           
   1367000  -2479.675       20.307269     -2499.9822      1.360611       219.11278      295.15535      294.98147      286.92396      391.12008      56151.151      15900.597      24           
   1368000  -2478.4267      20.33033      -2498.7571      1.360611       219.36162      348.82386      295.2114       282.51097      386.60177      55165.629      15621.522      27           
   1369000  -2477.9128      21.730624     -2499.6434      1.360611       234.47061      338.42912      323.75661      306.23041      354.33054      55266.871      15650.192      24           
   1370000  -2480.2368      20.043742     -2500.2805      1.360611       216.26937      336.11025      275.40419      312.73931      331.15273      56859.725      16101.248      24           
   1371000  -2479.1786      20.132943     -2499.3115      1.360611       217.23183      362.75413      277.34278      313.66764      318.76654      55148.337      15616.626      20           
   1372000  -2479.7384      19.892366     -2499.6307      1.360611       214.63604      372.77685      289.96287      287.72442      294.69025      57628.75       16319.016      24           
   1373000  -2478.9652      20.512346     -2499.4776      1.360611       221.32554      355.09611      302.58918      297.38967      297.86343      54793.453      15516.131      20           
   1374000  -2479.4953      20.453091     -2499.9484      1.360611       220.68619      397.68628      305.65017      289.92214      274.61858      57685.598      16335.114      22           
   1375000  -2479.1299      19.994812     -2499.1247      1.360611       215.74141      305.37385      304.90558      277.51591      298.51043      54984.083      15570.113      22           
   1376000  -2478.948       19.896158     -2498.8441      1.360611       214.67695      319.80865      286.38953      294.40157      321.45036      56792.937      16082.335      26           
   1377000  -2478.1501      20.922495     -2499.0726      1.360611       225.751        313.78196      314.18675      293.67974      337.15317      55785.883      15797.163      26           
   1378000  -2479.129       20.496264     -2499.6252      1.360611       221.15202      387.70507      299.17568      286.24086      350.37394      55283.299      15654.843      24           
   1379000  -2478.5264      21.615528     -2500.1419      1.360611       233.22873      354.66075      336.2618       276.90187      375.37188      56687.355      16052.437      27           
   1380000  -2478.1438      21.131576     -2499.2754      1.360611       228.00696      325.1038       311.92112      296.18461      378.72437      54535.667      15443.133      27           
   1381000  -2479.012       19.968075     -2498.9801      1.360611       215.45293      291.88965      302.73117      272.22683      343.28107      56482.152      15994.329      25           
   1382000  -2477.2205      20.709003     -2497.9295      1.360611       223.44744      202.12101      313.12089      301.83935      323.02539      54369.044      15395.949      23           
   1383000  -2476.9912      20.957154     -2497.9484      1.360611       226.12496      362.89965      310.67358      292.83397      339.929        57287.69       16222.437      27           
   1384000  -2478.6003      21.280901     -2499.8812      1.360611       229.61816      318.87146      310.01568      310.3904       355.5871       54834.509      15527.757      25           
   1385000  -2479.2608      20.771774     -2500.0325      1.360611       224.12474      307.51944      318.28338      275.01933      372.66622      57052.567      16155.856      27           
   1386000  -2480.6482      20.894391     -2501.5426      1.360611       225.44775      284.83224      302.83938      308.50935      364.94579      54981.658      15569.426      30           
   1387000  -2479.4594      20.231851     -2499.6912      1.360611       218.29904      353.19008      293.89558      282.23131      376.37313      56767.792      16075.214      31           
   1388000  -2480.0711      20.220623     -2500.2917      1.360611       218.17789      341.13495      294.24443      286.82286      356.93039      56212.623      15918.005      27           
   1389000  -2478.2753      21.449174     -2499.7245      1.360611       231.4338       299.84203      336.73642      280.30732      356.80825      55603.078      15745.397      26           
   1390000  -2476.7652      20.638765     -2497.404       1.360611       222.68959      313.77071      303.11623      296.68611      344.64785      56445.273      15983.885      28           
   1391000  -2478.131       21.111922     -2499.2429      1.360611       227.79489      335.29871      310.74712      301.19588      350.72996      55188.411      15627.974      28           
   1392000  -2478.2367      20.23998      -2498.4767      1.360611       218.38675      332.40806      313.4512       262.935        345.92317      56996.902      16140.093      28           
   1393000  -2479.2651      20.245495     -2499.5106      1.360611       218.44625      335.61102      300.6366       280.84363      349.42303      55013.701      15578.5        31           
   1394000  -2477.1422      21.778878     -2498.9211      1.360611       234.99126      345.8432       332.41634      297.5098       337.41812      56160.528      15903.253      28           
   1395000  -2477.3049      22.197108     -2499.502       1.360611       239.50391      357.84795      335.05765      306.00189      354.34178      55945.381      15842.328      31           
   1396000  -2479.1495      20.858823     -2500.0083      1.360611       225.06398      327.50312      317.04237      276.81433      396.73712      54813.23       15521.732      33           
   1397000  -2477.8426      21.47287      -2499.3155      1.360611       231.68947      297.78499      321.27482      300.69388      381.95638      56414.745      15975.24       30           
   1398000  -2478.3097      21.296491     -2499.6062      1.360611       229.78636      298.22619      310.12961      314.46491      354.64292      54890.269      15543.547      30           
   1399000  -2478.7926      20.777894     -2499.5705      1.360611       224.19077      314.35971      299.56454      307.66435      347.01791      57911.009      16398.945      27           
   1400000  -2479.7699      19.907222     -2499.6771      1.360611       214.79634      271.10089      286.32244      308.1557       284.9434       54864.595      15536.277      25           
   1401000  -2478.8136      20.347706     -2499.1614      1.360611       219.5491       258.57431      290.94915      313.45546      332.94016      57709.667      16341.93       29           
   1402000  -2480.235       19.791122     -2500.0261      1.360611       213.54363      269.17735      275.80113      310.25481      346.71435      54794.482      15516.423      34           
   1403000  -2479.8802      20.563005     -2500.4432      1.360611       221.87215      292.26484      297.91128      306.36629      340.43454      55730.972      15781.613      34           
   1404000  -2479.675       20.060873     -2499.7359      1.360611       216.45421      259.81272      288.47032      308.21572      314.82434      56057.738      15874.145      30           
   1405000  -2479.9247      19.856897     -2499.7816      1.360611       214.25333      359.69775      287.82031      286.85364      309.85721      55615.417      15748.891      29           
   1406000  -2479.711       21.09156      -2500.8025      1.360611       227.57519      281.91832      312.70827      302.82674      368.17334      57104.721      16170.625      29           
   1407000  -2478.4035      20.68931      -2499.0928      1.360611       223.23496      324.49665      302.28429      298.6192       346.89336      55253.933      15646.528      31           
   1408000  -2477.4465      21.657711     -2499.1042      1.360611       233.68389      351.07459      319.10282      317.51192      293.8058       57001.998      16141.536      34           
   1409000  -2478.7249      20.752584     -2499.4775      1.360611       223.91768      308.78574      314.58263      295.18555      291.61255      55161.694      15620.408      24           
   1410000  -2478.8169      20.400649     -2499.2176      1.360611       220.12035      378.05107      293.96158      306.48106      270.92603      57147.639      16182.778      25           
   1411000  -2479.8948      19.339763     -2499.2345      1.360611       208.67353      344.98537      285.64342      281.61335      265.3409       54517.634      15438.026      22           
   1412000  -2480.7033      18.215902     -2498.9192      1.360611       196.54721      346.22027      264.45563      265.62156      270.22201      56907.792      16114.859      21           
   1413000  -2479.7962      20.588991     -2500.3852      1.360611       222.15253      280.04541      303.44548      307.52585      300.09204      55360.472      15676.697      30           
   1414000  -2480.9314      19.295916     -2500.2273      1.360611       208.20042      247.15073      293.61904      274.59095      291.19516      56146.993      15899.42       27           
   1415000  -2480.5517      19.091244     -2499.643       1.360611       205.99203      254.95202      272.88367      293.63681      300.85689      56202.462      15915.127      26           
   1416000  -2479.3596      20.181655     -2499.5413      1.360611       217.75743      263.02335      295.03026      302.06909      318.0325       54191.54       15345.685      28           
   1417000  -2478.2637      20.183246     -2498.447       1.360611       217.77459      302.38012      284.95792      313.44629      305.70199      56856.426      16100.313      25           
   1418000  -2478.9244      20.512455     -2499.4369      1.360611       221.32672      308.82853      313.02971      289.46947      280.60683      54506.455      15434.861      29           
   1419000  -2478.3527      20.522221     -2498.8749      1.360611       221.4321       341.99009      280.77011      337.762        254.81513      57814.004      16371.475      26           
   1420000  -2480.6354      19.389353     -2500.0247      1.360611       209.20859      422.07925      271.76485      294.49737      268.94583      55615.722      15748.977      22           
   1421000  -2478.9596      20.087087     -2499.0467      1.360611       216.73705      334.25133      308.95198      275.36037      282.26767      56133.581      15895.622      23           
   1422000  -2479.2322      19.68004      -2498.9122      1.360611       212.34507      233.5433       284.29903      307.65502      279.60531      55064.851      15592.984      25           
   1423000  -2479.7277      19.230836     -2498.9585      1.360611       207.49821      239.98618      281.9788       286.15016      306.61869      55992.742      15855.74       25           
   1424000  -2478.8655      20.468966     -2499.3345      1.360611       220.85748      284.09387      296.19652      306.1954       330.92463      56876.206      16105.915      24           
   1425000  -2478.182       21.476297     -2499.6583      1.360611       231.72645      266.3799       306.95753      332.76984      340.98368      56146.701      15899.337      26           
   1426000  -2478.3725      20.975762     -2499.3483      1.360611       226.32574      248.10673      321.81143      294.55707      336.44303      56049.948      15871.939      29           
   1427000  -2479.7361      20.09321      -2499.8294      1.360611       216.80312      333.64795      311.0844       262.85384      329.26066      56170.235      15906.001      25           
   1428000  -2480.8592      18.912499     -2499.7717      1.360611       204.0634       325.96261      270.51927      277.11374      313.68902      56386.999      15967.383      28           
   1429000  -2478.7411      20.720546     -2499.4617      1.360611       223.572        275.36656      306.58933      303.83741      322.62293      57128.593      16177.384      24           
   1430000  -2478.5253      19.702985     -2498.2283      1.360611       212.59264      273.18733      290.53277      290.3066       297.31539      55354.549      15675.02       20           
   1431000  -2479.9965      19.213975     -2499.2105      1.360611       207.31629      281.80782      280.8037       285.29728      289.80293      56397.868      15970.461      20           
   1432000  -2478.3213      20.276255     -2498.5975      1.360611       218.77815      323.791        292.58208      301.90456      311.98475      55051.217      15589.124      25           
   1433000  -2479.0098      21.375759     -2500.3856      1.360611       230.64165      244.541        312.42635      323.8498       326.69126      55999.733      15857.719      21           
   1434000  -2478.2946      21.393141     -2499.6877      1.360611       230.8292       266.83822      329.51728      295.31676      336.1995       56138.615      15897.047      22           
   1435000  -2477.9731      20.477359     -2498.4505      1.360611       220.94804      243.25118      295.26321      306.26194      362.37305      56375.208      15964.045      23           
   1436000  -2479.0458      19.847969     -2498.8938      1.360611       214.157        211.19875      282.12959      306.41501      353.49665      54877.275      15539.868      25           
   1437000  -2478.9327      20.07712      -2499.0098      1.360611       216.62951      213.04367      302.13378      290.30243      340.21526      57202.484      16198.308      28           
   1438000  -2478.5787      20.647946     -2499.2266      1.360611       222.78864      258.90262      302.47777      307.78924      324.4047       55108.049      15605.217      22           
   1439000  -2480.1709      18.755883     -2498.9267      1.360611       202.37354      242.8134       262.42166      294.47557      310.67814      57030.995      16149.747      28           
   1440000  -2479.6929      20.282647     -2499.9755      1.360611       218.84712      343.0592       290.04116      306.51381      296.13756      54918.368      15551.504      26           
   1441000  -2479.6874      20.240923     -2499.9283      1.360611       218.39692      295.01287      317.82938      266.40309      316.96062      55521.622      15722.33       26           
   1442000  -2479.6577      19.881227     -2499.5389      1.360611       214.51586      327.24441      280.44161      301.55389      320.71664      56137.273      15896.667      24           
   1443000  -2479.8413      20.610876     -2500.4521      1.360611       222.38867      331.7384       315.99554      272.38077      354.85327      55197.67       15630.595      31           
   1444000  -2479.8607      19.955896     -2499.8165      1.360611       215.32152      239.97946      307.2811       275.47872      338.3294       57723.898      16345.96       30           
   1445000  -2477.1694      20.661803     -2497.8312      1.360611       222.93817      274.02834      301.62743      309.67254      323.42         55168.832      15622.429      27           
   1446000  -2478.79        20.909185     -2499.6992      1.360611       225.60739      391.8544       302.34573      306.90364      291.567        58180.546      16475.271      29           
   1447000  -2478.8903      20.328685     -2499.219       1.360611       219.34387      329.37493      312.12633      279.45674      289.71564      54350.853      15390.798      24           
   1448000  -2479.3371      19.871722     -2499.2089      1.360611       214.41329      325.78032      294.44422      290.8171       274.09265      57383.957      16249.697      21           
   1449000  -2479.168       20.111655     -2499.2797      1.360611       217.00214      264.56942      298.64007      300.2572       280.69725      54360.625      15393.565      25           
   1450000  -2480.3709      19.315224     -2499.6862      1.360611       208.40876      264.47995      275.55122      298.93762      292.6797       56965.731      16131.266      25           
   1451000  -2479.6392      20.594803     -2500.234       1.360611       222.21524      191.21977      300.01712      322.86835      303.75175      56493.759      15997.615      25           
   1452000  -2479.8275      20.02793      -2499.8554      1.360611       216.09876      302.64688      291.68136      296.34957      310.39919      54838.726      15528.951      28           
   1453000  -2478.7615      20.967686     -2499.7292      1.360611       226.2386       312.08775      304.15102      317.48086      298.43198      57411.852      16257.596      29           
   1454000  -2479.5557      20.44054      -2499.9963      1.360611       220.55077      374.61374      298.43577      299.25832      282.13932      53844.238      15247.337      26           
   1455000  -2480.0597      19.840321     -2499.9         1.360611       214.07448      361.51621      274.50151      308.8633       284.42571      58596.566      16593.078      31           
   1456000  -2478.267       20.63119      -2498.8982      1.360611       222.60785      346.51265      293.68595      314.30501      301.47718      53566.857      15168.79       25           
   1457000  -2479.7968      20.075268     -2499.8721      1.360611       216.60952      305.95712      291.71166      297.40891      311.91261      58293.718      16507.318      25           
   1458000  -2479.4619      21.298604     -2500.7605      1.360611       229.80917      283.88762      306.22508      325.78163      333.77508      54640.204      15472.735      27           
   1459000  -2479.417       20.756039     -2500.173       1.360611       223.95496      349.55663      305.01202      296.56691      328.09515      56271.484      15934.673      29           
   1460000  -2479.9603      20.024156     -2499.9844      1.360611       216.05804      255.93381      288.42364      299.65206      358.80134      56106.485      15887.949      30           
   1461000  -2480.0737      19.419301     -2499.493       1.360611       209.53173      258.11594      283.93565      278.70495      381.46887      55798.199      15800.65       31           
   1462000  -2479.8918      20.499        -2500.3908      1.360611       221.18154      260.98862      300.42382      303.16564      336.4139       57648.171      16324.516      25           
   1463000  -2477.6789      21.943305     -2499.6222      1.360611       236.7654       263.85256      316.90268      335.81768      353.5745       54454.416      15420.125      27           
   1464000  -2478.2113      20.920253     -2499.1316      1.360611       225.72681      306.58919      293.9042       322.33395      353.05769      57099.42       16169.123      30           
   1465000  -2478.5482      20.96932      -2499.5175      1.360611       226.25623      252.25368      296.07536      328.87706      360.54484      54712.18       15493.117      31           
   1466000  -2480.3191      19.997732     -2500.3168      1.360611       215.77292      305.49427      272.92024      312.88887      377.99482      58710.047      16625.213      34           
   1467000  -2480.8268      19.178434     -2500.0053      1.360611       206.93281      252.96537      271.4329       283.40037      415.95571      54474.151      15425.713      32           
   1468000  -2480.3817      20.866561     -2501.2482      1.360611       225.14747      323.83819      298.65245      302.13502      406.2493       56755.969      16071.867      31           
   1469000  -2478.9293      20.759047     -2499.6883      1.360611       223.98741      307.70275      299.72719      299.07923      397.62475      55810.452      15804.12       30           
   1470000  -2479.9653      20.181052     -2500.1463      1.360611       217.75093      267.44267      267.72195      329.93571      381.97099      55194.163      15629.602      27           
   1471000  -2478.9551      21.017269     -2499.9724      1.360611       226.7736       276.17215      305.18486      310.84634      359.41635      56753.927      16071.288      25           
   1472000  -2481.2363      19.014693     -2500.251       1.360611       205.16607      196.63958      275.71144      283.30297      328.56207      54860.08       15534.998      18           
   1473000  -2480.6724      19.29857      -2499.9709      1.360611       208.22906      303.42247      274.95175      288.80612      319.88817      57337.166      16236.447      25           
   1474000  -2480.4838      20.478981     -2500.9628      1.360611       220.96554      261.34345      306.38602      293.63677      336.1848       54077.349      15313.349      26           
   1475000  -2479.1064      20.291375     -2499.3977      1.360611       218.9413       353.95166      302.41508      278.53925      342.79326      58487.925      16562.313      26           
   1476000  -2477.7379      21.720916     -2499.4588      1.360611       234.36586      207.60438      305.51648      344.67084      371.38712      55000.521      15574.768      23           
   1477000  -2480.4038      19.342973     -2499.7468      1.360611       208.70816      153.291        277.0856       293.88709      364.3612       57045.205      16153.771      21           
   1478000  -2478.6884      20.336129     -2499.0245      1.360611       219.42418      222.61454      289.45456      314.05672      350.95754      55348.632      15673.344      24           
   1479000  -2479.7319      19.816386     -2499.5483      1.360611       213.81622      205.42099      277.52559      310.39879      352.89304      55348.894      15673.418      22           
   1480000  -2478.8488      20.375072     -2499.2239      1.360611       219.84437      181.68096      306.93878      293.74503      356.85527      57406.742      16256.149      24           
   1481000  -2478.7433      19.939119     -2498.6824      1.360611       215.14049      315.1341       302.59354      275.5789       307.28069      54921.179      15552.3        26           
   1482000  -2477.6532      20.915509     -2498.5687      1.360611       225.67562      308.40979      302.20926      318.33014      299.98549      57727.549      16346.994      32           
   1483000  -2478.4623      20.32281      -2498.7851      1.360611       219.28048      237.07861      310.72171      295.29921      283.54311      54128.319      15327.782      30           
   1484000  -2479.4147      20.535699     -2499.9504      1.360611       221.57752      254.03306      327.672        271.42206      314.36624      57921.25       16401.845      31           
   1485000  -2479.36        19.922284     -2499.2823      1.360611       214.95885      343.23951      301.0376       277.21155      276.3374       53981.992      15286.346      33           
   1486000  -2479.9031      20.70939      -2500.6125      1.360611       223.45162      297.15123      292.94711      323.18825      310.36773      57342.049      16237.83       26           
   1487000  -2478.2417      20.72328      -2498.9649      1.360611       223.60149      263.60114      313.89744      293.95261      335.96316      55794.557      15799.619      29           
   1488000  -2479.923       20.645497     -2500.5685      1.360611       222.76222      326.67934      291.91675      313.98368      334.09493      56138.956      15897.144      30           
   1489000  -2477.8103      21.823531     -2499.6339      1.360611       235.47306      288.89146      325.72393      318.44893      331.70203      56949.197      16126.584      28           
   1490000  -2479.1346      20.487865     -2499.6225      1.360611       221.06139      307.3568       293.71068      311.52999      311.12147      54899.281      15546.099      30           
   1491000  -2479.3419      20.551098     -2499.893       1.360611       221.74367      254.28075      311.67501      301.57873      280.48709      57861.776      16385.003      33           
   1492000  -2479.634       20.08319      -2499.7172      1.360611       216.695        212.83917      303.79724      300.42338      271.51346      53741.955      15218.374      28           
   1493000  -2478.977       19.621774     -2498.5987      1.360611       211.71638      282.55842      295.56107      281.08358      288.10745      57039.677      16152.205      33           
   1494000  -2479.0387      20.350825     -2499.3895      1.360611       219.58275      281.43514      296.20586      305.80486      316.41406      54367.178      15395.421      32           
   1495000  -2480.0654      19.973709     -2500.0391      1.360611       215.51372      283.5032       275.88567      315.32882      342.16811      56811.247      16087.52       29           
   1496000  -2478.9766      20.589955     -2499.5666      1.360611       222.16293      231.3318       295.73549      318.72491      337.61962      55258.319      15647.77       27           
   1497000  -2479.9138      21.078144     -2500.9919      1.360611       227.43044      360.91933      304.37808      313.28575      298.91979      56467.849      15990.278      32           
   1498000  -2478.6522      20.3189       -2498.9711      1.360611       219.23829      317.60239      297.8346       301.57817      281.63763      56735.959      16066.2        32           
   1499000  -2481.5955      20.270909     -2501.8664      1.360611       218.72047      293.10996      315.90416      278.26777      274.72785      54347.964      15389.98       27           
   1500000  -2478.7086      20.399647     -2499.1083      1.360611       220.10954      296.50376      316.4182       281.8942       279.86492      58430.336      16546.005      24           
   1501000  -2478.3285      20.899671     -2499.2282      1.360611       225.50473      280.18431      322.51284      299.31334      259.83002      54152.512      15334.633      22           
   1502000  -2479.8966      20.327636     -2500.2242      1.360611       219.33255      336.32773      308.69959      288.22445      270.97252      58085.674      16448.406      21           
   1503000  -2480.0299      20.142905     -2500.1728      1.360611       217.33932      306.2659       297.38812      293.85195      301.94758      54413.976      15408.673      24           
   1504000  -2480.1469      20.086228     -2500.2331      1.360611       216.72779      287.19514      290.96358      300.3587       317.6887       57480.905      16277.15       25           
   1505000  -2479.428       20.197245     -2499.6253      1.360611       217.92565      238.66643      289.55555      312.81816      326.34266      54855.183      15533.612      29           
   1506000  -2480.051       20.843685     -2500.8946      1.360611       224.90064      215.59913      322.28502      289.14478      349.47472      57249.903      16211.736      26           
   1507000  -2481.3701      20.813307     -2502.1835      1.360611       224.57288      266.90869      301.56767      308.84875      364.23497      56874.596      16105.459      26           
   1508000  -2479.6937      20.81619      -2500.5099      1.360611       224.60398      299.50218      307.56664      301.23455      331.16381      55496.53       15715.225      21           
   1509000  -2479.2838      20.297622     -2499.5814      1.360611       219.0087       291.53722      288.02137      312.05053      321.17547      58940.222      16690.392      22           
   1510000  -2480.0634      19.877044     -2499.9404      1.360611       214.47072      300.07168      298.57455      283.46258      293.9074       54391.234      15402.233      23           
   1511000  -2478.6287      20.375722     -2499.0044      1.360611       219.85139      309.74353      305.16375      296.5944       274.14775      58166.135      16471.19       27           
   1512000  -2479.9781      19.981148     -2499.9592      1.360611       215.59399      274.1081       306.90703      282.0907       276.69943      54227.99       15356.006      27           
   1513000  -2480.4278      19.945791     -2500.3736      1.360611       215.21249      273.64839      292.55005      299.28869      289.39599      58580.889      16588.638      24           
   1514000  -2478.2501      21.432208     -2499.6823      1.360611       231.25073      272.55612      281.84662      369.86386      322.23716      55289.253      15656.529      23           
   1515000  -2480.3035      20.031054     -2500.3346      1.360611       216.13247      351.29461      292.1717       292.21534      293.0699       56391.008      15968.519      27           
   1516000  -2480.4896      20.101797     -2500.5914      1.360611       216.89578      401.79086      308.99752      266.18063      291.46493      56084.842      15881.82       23           
   1517000  -2478.5421      19.786633     -2498.3287      1.360611       213.4952       200.25318      298.42224      289.14383      296.36772      54816.214      15522.577      19           
   1518000  -2480.3027      20.598217     -2500.9009      1.360611       222.25208      241.48513      313.11895      302.07284      277.75507      57604.446      16312.134      24           
   1519000  -2478.6166      20.271294     -2498.8879      1.360611       218.72462      340.56819      292.356        313.12837      252.07191      55383.408      15683.192      21           
   1520000  -2479.8319      19.240007     -2499.0719      1.360611       207.59717      238.7337       293.48408      277.89278      263.19331      57597.543      16310.179      22           
   1521000  -2479.73        19.233167     -2498.9631      1.360611       207.52336      201.18153      294.04738      275.94056      290.62455      54194.526      15346.53       23           
   1522000  -2478.2487      20.904415     -2499.1531      1.360611       225.55592      225.7341       306.77575      312.54838      338.84931      57066.487      16159.798      22           
   1523000  -2479.7363      20.370471     -2500.1067      1.360611       219.79473      326.70659      298.09072      292.9138       335.54648      56341.128      15954.394      17           
   1524000  -2478.8191      20.656853     -2499.476       1.360611       222.88475      204.27935      291.73318      324.93293      334.76978      55699          15772.559      18           
   1525000  -2479.0592      20.18793      -2499.2471      1.360611       217.82514      299.60541      299.21649      284.93667      342.35782      55433.054      15697.25       21           
   1526000  -2477.8756      21.176306     -2499.0519      1.360611       228.48959      231.71825      320.7067       302.47812      350.64456      55167.125      15621.946      26           
   1527000  -2479.6811      20.200433     -2499.8815      1.360611       217.96005      255.20918      316.40547      263.76286      356.66868      56802.66       16085.088      25           
   1528000  -2478.6696      20.175058     -2498.8446      1.360611       217.68625      259.13109      299.81231      290.15686      334.557        54978.589      15568.557      23           
   1529000  -2478.1648      21.295436     -2499.4602      1.360611       229.77499      378.70737      326.6761       292.46969      289.35663      56786.848      16080.611      22           
   1530000  -2477.5109      21.749551     -2499.2605      1.360611       234.67483      334.21564      316.25978      319.154        350.58289      55952.636      15844.383      22           
   1531000  -2477.7574      21.700239     -2499.4576      1.360611       234.14276      373.84071      312.36021      316.11497      360.59137      57358.218      16242.408      23           
   1532000  -2479.1891      20.443691     -2499.6328      1.360611       220.58477      342.88142      289.09568      302.65486      359.3078       56609.749      16030.461      24           
   1533000  -2479.1794      21.271565     -2500.451       1.360611       229.51741      330.77198      300.09915      324.86672      344.77029      55101.484      15603.358      21           
   1534000  -2480.5742      19.880525     -2500.4547      1.360611       214.50827      294.4158       271.30805      309.06413      365.86558      56617.748      16032.726      22           
   1535000  -2479.9531      19.578066     -2499.5312      1.360611       211.24478      303.00116      281.25249      279.81538      377.87157      54824.324      15524.873      24           
   1536000  -2478.5875      21.292683     -2499.8802      1.360611       229.74528      221.17139      330.87212      291.10965      372.49403      57309.031      16228.48       28           
   1537000  -2478.3419      21.752914     -2500.0948      1.360611       234.71111      332.25967      310.67622      322.23653      378.59772      54676.283      15482.952      24           
   1538000  -2478.0521      21.907691     -2499.9598      1.360611       236.38114      255.33893      309.5797       335.37763      402.73137      56526.411      16006.861      24           
   1539000  -2479.3101      20.456649     -2499.7667      1.360611       220.72458      234.9735       286.66652      310.02836      431.00851      54680.167      15484.051      28           
   1540000  -2477.8541      22.084604     -2499.9387      1.360611       238.29         282.62708      318.29618      316.99828      473.15566      58315.355      16513.446      28           
   1541000  -2478.8221      21.407524     -2500.2296      1.360611       230.9844       460.31214      309.33857      296.94872      333.86272      55105.89       15604.606      33           
   1542000  -2477.2588      21.480966     -2498.7398      1.360611       231.77683      278.69532      313.76441      305.06574      431.55318      56207.866      15916.657      27           
   1543000  -2477.8585      20.773653     -2498.6322      1.360611       224.14501      236.29385      302.34295      303.0987       408.90671      56191.923      15912.143      28           
   1544000  -2477.9511      22.898229     -2500.8494      1.360611       247.06891      256.62772      341.38913      329.31309      435.28971      55522.956      15722.708      32           
   1545000  -2480.1766      19.875929     -2500.0525      1.360611       214.45869      211.80149      283.82541      301.1874       397.08854      55729.309      15781.142      29           
   1546000  -2481.9242      18.849728     -2500.7739      1.360611       203.38611      225.20145      282.34223      260.58035      390.29349      55866.604      15820.021      30           
   1547000  -2479.7725      21.984442     -2501.7569      1.360611       237.20926      316.75084      303.01998      353.49235      339.15815      56035.928      15867.969      29           
   1548000  -2480.2287      19.813212     -2500.0419      1.360611       213.78198      314.69866      271.19934      310.60276      340.97123      55963.27       15847.394      30           
   1549000  -2480.2283      21.082136     -2501.3104      1.360611       227.4735       380.68428      308.96223      308.1367       274.48941      56378.462      15964.966      31           
   1550000  -2480.2793      19.604455     -2499.8838      1.360611       211.52952      231.88207      287.37185      285.18776      376.42884      55003.34       15575.566      29           
   1551000  -2481.1026      20.364614     -2501.4672      1.360611       219.73154      295.17114      309.63297      268.37804      409.00761      56580.369      16022.141      31           
   1552000  -2478.356       20.946917     -2499.3029      1.360611       226.01451      198.59203      302.91974      314.61412      427.00042      55668.967      15764.055      30           
   1553000  -2479.0269      20.944594     -2499.9715      1.360611       225.98945      233.3728       316.81274      288.32094      444.07014      55651.384      15759.076      34           
   1554000  -2480.0578      20.504979     -2500.5628      1.360611       221.24606      247.59329      300.75771      293.09779      418.96074      55919.315      15834.947      29           
   1555000  -2478.1328      21.80645      -2499.9392      1.360611       235.28876      241.08908      321.39565      323.40447      378.90338      55805.541      15802.729      29           
   1556000  -2479.2286      20.704106     -2499.9328      1.360611       223.39461      339.64515      278.65156      320.75519      421.29208      57809.246      16370.128      31           
   1557000  -2478.8905      21.616599     -2500.5071      1.360611       233.24029      281.33012      305.69         319.12921      448.42007      55154.108      15618.26       27           
   1558000  -2478.5879      20.863235     -2499.4511      1.360611       225.11159      237.08322      295.11294      307.10339      446.71359      56335.771      15952.877      25           
   1559000  -2479.6949      20.228786     -2499.9237      1.360611       218.26597      297.0067       275.26373      309.54527      425.30161      54904.976      15547.712      28           
   1560000  -2480.854       20.483697     -2501.3377      1.360611       221.01643      346.69056      288.83981      304.18741      360.03364      57481.014      16277.181      31           
   1561000  -2480.4445      21.303498     -2501.748       1.360611       229.86198      241.51083      296.26377      334.81468      411.04018      54916.849      15551.074      29           
   1562000  -2480.4647      19.599242     -2500.064       1.360611       211.47327      237.53465      270.88543      302.03524      392.80453      56276.32       15936.042      26           
   1563000  -2479.1424      19.188926     -2498.3314      1.360611       207.04601      355.90849      266.36048      282.59935      356.14656      55679.515      15767.042      30           
   1564000  -2478.6107      20.632497     -2499.2432      1.360611       222.62196      377.56715      299.16312      302.23159      295.08802      56042.531      15869.839      28           
   1565000  -2480.5595      20.558647     -2501.1182      1.360611       221.82513      286.92541      297.17476      307.44078      334.89948      56288.955      15939.62       26           
   1566000  -2479.5963      19.333582     -2498.9299      1.360611       208.60683      255.00045      278.23578      286.36996      356.18143      55052.172      15589.394      27           
   1567000  -2478.769       20.964646     -2499.7337      1.360611       226.2058       315.07367      311.79906      295.85953      353.26441      56728.771      16064.165      26           
   1568000  -2481.1829      19.725898     -2500.9088      1.360611       212.83987      250.894        287.07469      287.43423      361.87243      55318.822      15664.902      25           
   1569000  -2480.3457      19.623383     -2499.9691      1.360611       211.73375      294.15416      274.85078      304.44033      318.40709      56803.476      16085.319      30           
   1570000  -2479.4598      19.847024     -2499.3068      1.360611       214.14681      280.06137      274.18447      312.62213      341.02026      54345.982      15389.419      29           
   1571000  -2478.834       20.141381     -2498.9754      1.360611       217.32288      297.65971      289.30081      307.77631      296.32578      55656.978      15760.66       33           
   1572000  -2478.9939      21.151975     -2500.1459      1.360611       228.22705      283.70433      305.23039      323.26838      326.13688      55717.069      15777.676      32           
   1573000  -2479.1608      20.945009     -2500.1058      1.360611       225.99392      277.35964      314.38994      308.54262      290.39749      56291.523      15940.347      34           
   1574000  -2477.42        21.553874     -2498.9739      1.360611       232.5635       271.8059       329.41035      309.09034      306.77442      56551.155      16013.868      30           
   1575000  -2477.8071      21.844038     -2499.6511      1.360611       235.69433      361.46982      334.15738      306.19275      264.18741      55407.945      15690.14       32           
   1576000  -2478.6465      20.220153     -2498.8666      1.360611       218.17282      247.90148      322.08923      274.14464      277.47298      56641.389      16039.42       31           
   1577000  -2478.6644      20.763142     -2499.4275      1.360611       224.03159      291.81262      302.10573      312.37848      313.05993      56462.221      15988.685      27           
   1578000  -2478.8868      21.148228     -2500.035       1.360611       228.18662      290.87704      308.52595      318.16022      314.86946      56871.218      16104.502      24           
   1579000  -2479.4384      20.482603     -2499.921       1.360611       221.00462      272.39361      295.90637      312.77893      303.20006      54878.281      15540.152      17           
   1580000  -2480.0368      20.029459     -2500.0662      1.360611       216.11525      258.58489      306.68179      278.00268      312.83329      56973.433      16133.447      20           
   1581000  -2479.7855      19.735293     -2499.5208      1.360611       212.94125      337.6612       274.26741      306.57213      295.88509      55443.82       15700.299      31           
   1582000  -2479.6492      20.401688     -2500.0509      1.360611       220.13156      209.75946      302.02322      313.52526      301.05332      56819.719      16089.919      32           
   1583000  -2479.6608      21.023529     -2500.6843      1.360611       226.84114      307.8207       327.76741      283.71938      309.18556      55930.42       15838.092      28           
   1584000  -2478.3634      20.394437     -2498.7579      1.360611       220.05332      289.3569       312.89067      281.97591      309.8477       55624.366      15751.425      25           
   1585000  -2478.043       21.133495     -2499.1765      1.360611       228.02766      277.9789       291.84841      341.81292      327.35401      55995.172      15856.428      27           
   1586000  -2479.7931      19.77407      -2499.5672      1.360611       213.35964      281.8103       296.6867       278.99406      325.81098      55505.879      15717.872      29           
   1587000  -2479.7309      20.126971     -2499.8579      1.360611       217.1674       320.01475      289.12567      297.00321      335.3713       56518.136      16004.518      26           
   1588000  -2480.111       20.344922     -2500.456       1.360611       219.51906      443.01004      292.15632      284.51734      349.7358       55306.348      15661.37       23           
   1589000  -2480.4615      20.551924     -2501.0134      1.360611       221.75258      363.3321       295.74332      294.08368      364.83563      56778.295      16078.189      23           
   1590000  -2479.906       20.520958     -2500.4269      1.360611       221.41847      297.57676      298.44156      294.54531      372.85237      54124.606      15326.731      24           
   1591000  -2478.8157      20.191952     -2499.0076      1.360611       217.86853      289.24546      278.58483      312.65079      357.27785      56390.867      15968.479      24           
   1592000  -2478.9931      21.060148     -2500.0532      1.360611       227.23626      329.04439      296.55431      317.49047      362.84388      54849.894      15532.114      21           
   1593000  -2479.0694      21.157083     -2500.2265      1.360611       228.28217      284.5352       301.28775      318.76925      365.05718      56455.04       15986.651      21           
   1594000  -2479.0007      20.318549     -2499.3192      1.360611       219.2345       306.58151      290.01424      300.82024      352.3122       55450.725      15702.254      22           
   1595000  -2478.5582      21.527593     -2500.0858      1.360611       232.27992      344.29121      304.44872      318.72042      387.33062      56406.981      15973.042      23           
   1596000  -2480.613       20.084529     -2500.6975      1.360611       216.70945      351.4984       300.10313      276.44179      329.44086      56554.201      16014.731      23           
   1597000  -2479.1852      20.052499     -2499.2377      1.360611       216.36386      378.6924       297.93096      277.76037      307.6558       55271.048      15651.374      28           
   1598000  -2478.1811      20.838157     -2499.0193      1.360611       224.841        333.20211      301.78864      311.17058      308.85057      56569.543      16019.075      25           
   1599000  -2479.1461      21.179113     -2500.3253      1.360611       228.51988      402.17515      317.67876      297.06482      273.20763      55060.901      15591.866      29           
   1600000  -2480.7207      20.152636     -2500.8733      1.360611       217.44432      368.86925      297.18003      284.63713      307.79681      56965.713      16131.261      27           
   1601000  -2477.8484      21.813467     -2499.6619      1.360611       235.36447      320.12431      307.51991      335.10354      358.08358      55044.639      15587.261      29           
   1602000  -2479.9157      19.415388     -2499.3311      1.360611       209.48951      205.07089      276.37629      298.92586      373.35262      55688.734      15769.652      31           
   1603000  -2478.99        20.253221     -2499.2432      1.360611       218.52962      296.78487      288.265        306.86808      339.94753      56230.822      15923.158      30           
   1604000  -2478.3715      21.760837     -2500.1323      1.360611       234.7966       350.15644      311.65091      327.22793      333.82165      56094.485      15884.551      30           
   1605000  -2479.8348      20.255801     -2500.0906      1.360611       218.55746      299.4443       308.69805      275.70708      347.28884      55810.486      15804.13       31           
   1606000  -2476.9604      21.199015     -2498.1595      1.360611       228.73462      230.90719      298.74985      339.15005      347.5301       56528.758      16007.526      29           
   1607000  -2479.2652      19.788485     -2499.0537      1.360611       213.51518      370.52222      274.9933       300.29547      319.96102      56543.235      16011.626      26           
   1608000  -2480.4327      20.24055      -2500.6733      1.360611       218.3929       366.46896      284.49912      304.27127      315.36412      55607.988      15746.787      31           
   1609000  -2480.9083      20.098588     -2501.0069      1.360611       216.86115      352.12067      296.0463       283.68473      324.24424      56893.032      16110.679      25           
   1610000  -2478.4021      21.341189     -2499.7432      1.360611       230.26865      332.22275      285.68965      348.82633      344.56646      55455.614      15703.639      29           
   1611000  -2478.8264      21.23123      -2500.0576      1.360611       229.08221      309.07578      313.98318      310.34512      319.74983      56841.809      16096.174      24           
   1612000  -2479.6889      20.637179     -2500.326       1.360611       222.67247      385.06344      307.70465      289.10502      290.7927       55994.459      15856.226      29           
   1613000  -2478.9453      20.880432     -2499.8258      1.360611       225.29715      344.13358      314.12483      292.06735      312.8851       56883.711      16108.04       28           
   1614000  -2478.6311      21.243216     -2499.8743      1.360611       229.21154      301.41621      316.75684      306.91586      322.53553      56072.14       15878.223      22           
   1615000  -2479.1167      19.180839     -2498.2975      1.360611       206.95876      378.4089       280.93791      273.25625      278.20659      54334.835      15386.262      26           
   1616000  -2480.586       19.495806     -2500.0818      1.360611       210.35721      281.95957      278.10287      303.13521      278.67986      57461.611      16271.687      26           
   1617000  -2480.8761      19.766197     -2500.6423      1.360611       213.27469      263.15781      309.17882      267.37679      299.30449      55295.024      15658.163      27           
   1618000  -2479.5325      20.278748     -2499.8112      1.360611       218.80505      351.14651      290.44589      302.27421      312.7114       57169.1        16188.855      24           
   1619000  -2478.2534      21.590265     -2499.8437      1.360611       232.95615      267.05146      287.28234      374.72877      294.48074      55204.604      15632.559      25           
   1620000  -2480.048       20.727388     -2500.7754      1.360611       223.64582      275.63286      310.17396      304.1296       299.26002      56865.064      16102.759      30           
   1621000  -2479.5549      20.01483      -2499.5697      1.360611       215.95741      354.54256      289.96589      296.31708      275.67291      57037.322      16151.539      30           
   1622000  -2480.5994      19.131854     -2499.7312      1.360611       206.43021      336.91445      281.04526      278.85618      258.75196      55893.215      15827.556      29           
   1623000  -2480.0124      19.432698     -2499.4451      1.360611       209.67628      293.15416      296.17458      275.50102      262.99008      56983.191      16136.21       25           
   1624000  -2480.2953      20.341236     -2500.6365      1.360611       219.47929      300.67839      314.00863      283.82378      271.72653      55642.098      15756.446      26           
   1625000  -2480.2211      19.792418     -2500.0135      1.360611       213.55762      247.1245       296.71539      289.97091      294.00864      56672.635      16048.269      27           
   1626000  -2478.1861      20.722506     -2498.9086      1.360611       223.59314      369.00158      305.19516      305.57077      275.3423       55436.483      15698.221      20           
   1627000  -2479.9345      20.250627     -2500.1851      1.360611       218.50163      301.96611      297.26657      302.03121      287.89281      56306.666      15944.635      20           
   1628000  -2480.1245      20.385868     -2500.5104      1.360611       219.96086      390.96956      302.22234      287.83679      291.94558      54886.444      15542.464      25           
   1629000  -2481.0452      19.468015     -2500.5132      1.360611       210.05735      296.54719      290.71975      274.59793      313.15975      55831.187      15809.991      21           
   1630000  -2479.692       20.386045     -2500.078       1.360611       219.96277      351.84765      302.44939      283.77837      338.45771      56004.614      15859.102      19           
   1631000  -2477.6781      20.743729     -2498.4218      1.360611       223.82213      251.96878      312.91448      296.3636       320.82375      55409.791      15690.663      18           
   1632000  -2477.8968      21.557549     -2499.4543      1.360611       232.60315      270.86242      324.83358      307.78017      329.28838      56188.102      15911.061      15           
   1633000  -2476.8782      21.274879     -2498.1531      1.360611       229.55317      183.14795      330.04492      299.35516      337.42745      55388.944      15684.759      23           
   1634000  -2477.8148      21.289059     -2499.1038      1.360611       229.70617      301.92921      312.07772      310.49583      342.97173      56108.547      15888.533      18           
   1635000  -2479.7362      20.700312     -2500.4365      1.360611       223.35367      239.60948      295.59194      310.24104      371.60234      54881.323      15541.014      20           
   1636000  -2478.2303      21.294664     -2499.525       1.360611       229.76666      312.27142      311.21112      308.06801      354.04696      55873.953      15822.102      20           
   1637000  -2478.1178      21.242946     -2499.3608      1.360611       229.20862      364.13261      307.89063      311.45439      327.2245       55062.286      15592.258      23           
   1638000  -2480.2165      19.603253     -2499.8197      1.360611       211.51655      252.9398       286.55607      288.03908      320.06947      56266.232      15933.185      18           
   1639000  -2479.1459      20.486484     -2499.6324      1.360611       221.0465       318.76975      293.52286      311.6523       307.67989      56006.727      15859.7        13           
   1640000  -2479.6619      20.090743     -2499.7526      1.360611       216.7765       239.17364      285.62304      312.86077      313.34513      56554.399      16014.787      19           
   1641000  -2479.2107      20.350677     -2499.5614      1.360611       219.58115      255.04586      305.50763      294.37774      306.64518      56248.501      15928.164      19           
   1642000  -2478.4036      21.267171     -2499.6707      1.360611       229.47001      237.64693      295.11477      350.03969      296.67661      56086.47       15882.281      15           
   1643000  -2478.7704      19.715951     -2498.4863      1.360611       212.73254      213.83187      284.16373      305.30085      295.15944      56200.833      15914.666      17           
   1644000  -2478.5673      20.36533      -2498.9326      1.360611       219.73926      455.12058      314.20267      267.50948      275.56102      56241.74       15926.25       22           
   1645000  -2479.9412      19.582909     -2499.5241      1.360611       211.29703      231.9844       294.54039      277.93482      320.45022      56028.112      15865.756      19           
   1646000  -2478.4956      20.992616     -2499.4882      1.360611       226.5076       226.82527      309.70425      311.55717      334.40824      56214.994      15918.676      20           
   1647000  -2478.5306      20.73349      -2499.2641      1.360611       223.71165      301.75838      308.15455      294.76179      336.48843      54943.991      15558.76       18           
   1648000  -2478.0017      20.911193     -2498.9129      1.360611       225.62905      330.55568      310.99053      296.41491      332.23731      55171.466      15623.175      18           
   1649000  -2479.5428      20.476325     -2500.0191      1.360611       220.93688      338.16488      316.72371      275.14554      305.00832      56823.012      16090.851      21           
   1650000  -2478.4236      19.488191     -2497.9117      1.360611       210.27504      342.56996      289.21044      279.56313      283.96525      56498.001      15998.817      19           
   1651000  -2479.9314      19.632497     -2499.5639      1.360611       211.83209      248.52922      288.44945      295.6371       284.33683      56155.191      15901.741      19           
   1652000  -2479.8982      19.850228     -2499.7485      1.360611       214.18138      369.82915      288.90565      294.04564      286.17218      55895.162      15828.108      14           
   1653000  -2478.9909      20.143915     -2499.1348      1.360611       217.35023      334.09382      277.63593      323.38419      292.97294      56391.724      15968.721      15           
   1654000  -2480.4309      19.280058     -2499.711       1.360611       208.02932      291.30133      296.81237      259.2835       306.76017      55437.937      15698.633      14           
   1655000  -2478.9846      20.191491     -2499.1761      1.360611       217.86356      206.94014      306.03479      286.51863      321.8385       55804.431      15802.415      16           
   1656000  -2479.1512      21.119182     -2500.2704      1.360611       227.87322      384.58964      303.00401      316.00685      312.40686      56305.721      15944.368      19           
   1657000  -2477.3788      21.529577     -2498.9084      1.360611       232.30134      399.30484      325.6871       307.49121      268.45908      56329.772      15951.178      20           
   1658000  -2480.1411      19.039064     -2499.1802      1.360611       205.42903      375.41319      274.15145      287.75353      243.66831      55506.173      15717.956      21           
   1659000  -2478.2062      20.61285      -2498.8191      1.360611       222.40997      367.10645      301.5225       307.8206       268.34542      55063.454      15592.589      21           
   1660000  -2478.406       21.854461     -2500.2604      1.360611       235.80679      266.06631      327.37355      331.31385      271.22835      56756.181      16071.926      23           
   1661000  -2478.6479      20.838831     -2499.4867      1.360611       224.84828      343.44416      314.12825      301.23531      268.27206      55741.862      15784.697      20           
   1662000  -2480.0885      18.89869      -2498.9872      1.360611       203.9144       273.92373      271.7038       291.45104      266.95384      55753.708      15788.051      21           
   1663000  -2480.0426      19.177892     -2499.2204      1.360611       206.92696      306.17436      288.77837      273.97622      264.14313      55936.65       15839.856      27           
   1664000  -2478.9223      20.706449     -2499.6287      1.360611       223.41989      286.44436      293.3478       325.43993      300.40183      56567.041      16018.367      21           
   1665000  -2479.3108      20.568769     -2499.8796      1.360611       221.93434      276.98906      286.89871      329.87902      302.87294      56507.245      16001.434      21           
   1666000  -2479.1247      20.097435     -2499.2222      1.360611       216.8487       285.78096      295.01843      297.42046      305.18403      56316.824      15947.512      25           
   1667000  -2478.0555      20.974974     -2499.0305      1.360611       226.31724      293.89916      298.12983      330.5525       291.66787      56558.425      16015.927      35           
   1668000  -2480.3604      20.47155      -2500.832       1.360611       220.88536      215.51578      301.77095      315.01605      290.34013      55536.564      15726.562      26           
   1669000  -2479.2154      20.649415     -2499.8649      1.360611       222.8045       249.38257      308.52762      313.60535      259.03155      56250.479      15928.724      28           
   1670000  -2479.3994      20.819643     -2500.219       1.360611       224.64123      178.89289      307.89207      333.67419      243.26344      55951.44       15844.044      25           
   1671000  -2479.1799      20.556135     -2499.7361      1.360611       221.79802      300.12033      313.13045      297.0897       251.11913      56563.641      16017.404      29           
   1672000  -2478.9533      20.20751      -2499.1608      1.360611       218.0364       269.5302       323.80546      267.5661       274.64722      55247.418      15644.683      29           
   1673000  -2480.0679      19.953859     -2500.0217      1.360611       215.29954      241.39091      310.57256      281.19124      269.78419      56157.047      15902.267      26           
   1674000  -2479.5389      19.887456     -2499.4264      1.360611       214.58306      260.37935      291.93563      299.13552      294.32189      55495.381      15714.9        28           
   1675000  -2477.6995      20.194198     -2497.8937      1.360611       217.89277      245.24137      304.24996      297.59659      285.97089      55205.292      15632.754      28           
   1676000  -2480.8974      19.283658     -2500.1811      1.360611       208.06815      200.64273      278.91797      304.36606      274.555        55826.105      15808.552      25           
   1677000  -2478.9082      20.306584     -2499.2148      1.360611       219.1054       188.46395      308.69404      308.26063      268.7748       55920.294      15835.224      31           
   1678000  -2481.2577      18.798879     -2500.0566      1.360611       202.83746      262.88441      289.9742       263.5311       255.62208      56396.282      15970.012      28           
   1679000  -2480.6342      19.81226      -2500.4465      1.360611       213.77171      306.12066      292.7108       293.52237      265.05439      55291.641      15657.205      30           
   1680000  -2479.4053      20.540434     -2499.9457      1.360611       221.62861      284.51239      316.37576      295.13929      252.35802      56418.022      15976.168      27           
   1681000  -2480.0546      20.360126     -2500.4147      1.360611       219.68311      302.7949       305.2446       294.82816      286.13947      54909.759      15549.066      24           
   1682000  -2480.4448      20.304985     -2500.7498      1.360611       219.08815      247.1406       306.36475      293.41043      309.03583      56471.364      15991.274      25           
   1683000  -2482.1009      18.713116     -2500.814       1.360611       201.91209      245.20633      281.55837      266.52494      305.36745      54995.22       15573.267      30           
   1684000  -2480.5683      19.12201      -2499.6903      1.360611       206.324        319.51092      259.06165      311.1871       277.85549      56816.945      16089.134      25           
   1685000  -2480.9076      20.05797      -2500.9656      1.360611       216.42288      265.14076      299.48073      299.25022      267.52674      55732.439      15782.029      26           
   1686000  -2479.5225      19.853651     -2499.3762      1.360611       214.21831      326.85874      271.42394      323.95436      263.77112      55339.053      15670.631      28           
   1687000  -2481.2951      20.060013     -2501.3551      1.360611       216.44493      271.58419      306.85272      287.82988      267.69983      55971.251      15849.654      26           
   1688000  -2480.6769      19.8011       -2500.478       1.360611       213.65129      262.55598      279.76908      318.13388      268.22073      55098.958      15602.643      30           
   1689000  -2481.1728      19.396446     -2500.5692      1.360611       209.28513      251.83001      275.81315      305.52375      281.80107      57064.516      16159.239      24           
   1690000  -2481.4294      19.243739     -2500.6732      1.360611       207.63744      252.39455      287.50701      282.34117      280.52758      54882.606      15541.377      25           
   1691000  -2479.7733      20.180877     -2499.9542      1.360611       217.74903      243.52499      301.93579      300.39184      283.65869      56276.301      15936.037      26           
   1692000  -2478.1125      21.478541     -2499.591       1.360611       231.75066      299.04794      313.9073       332.13472      267.75017      56450.095      15985.251      28           
   1693000  -2479.9838      20.064752     -2500.0485      1.360611       216.49607      297.82913      308.87039      276.98818      290.12614      56100.806      15886.341      28           
   1694000  -2479.5984      20.441754     -2500.0401      1.360611       220.56387      236.12896      311.64199      299.03838      279.21529      56013.326      15861.569      27           
   1695000  -2480.3526      19.879162     -2500.2318      1.360611       214.49357      247.5554       300.06775      286.97936      299.46858      54384.564      15400.344      25           
   1696000  -2480.5273      19.559208     -2500.0865      1.360611       211.04131      370.57031      279.64922      294.50637      274.60651      56910.192      16115.539      22           
   1697000  -2480.2321      19.058797     -2499.2909      1.360611       205.64194      345.11671      287.62779      267.97068      260.85161      54827.884      15525.881      22           
   1698000  -2479.6432      21.093764     -2500.737       1.360611       227.59897      305.21117      305.12435      332.21605      245.1985       56720.232      16061.747      28           
   1699000  -2480.9709      19.425258     -2500.3961      1.360611       209.596        220.9868       287.91752      292.30816      278.60496      54191.447      15345.658      21           
   1700000  -2479.2516      20.975327     -2500.2269      1.360611       226.32105      268.37779      310.01833      318.70458      277.98765      56122.971      15892.617      25           
   1701000  -2478.1581      20.77621      -2498.9343      1.360611       224.1726       272.46633      319.86943      295.16716      280.05892      55794.189      15799.515      23           
   1702000  -2478.9423      20.870907     -2499.8132      1.360611       225.19436      400.15193      316.20246      288.29256      277.49114      55730.901      15781.593      26           
   1703000  -2478.0063      21.005529     -2499.0118      1.360611       226.64692      281.0871       338.03943      275.09381      290.8875       56811.28       16087.529      27           
   1704000  -2479.7797      20.069201     -2499.8489      1.360611       216.54407      248.43758      306.19502      289.44957      282.84916      55644.414      15757.102      27           
   1705000  -2480.6569      20.452719     -2501.1096      1.360611       220.68217      237.89731      319.37577      287.9329       275.40687      57566.969      16301.521      26           
   1706000  -2478.892       20.353363     -2499.2454      1.360611       219.61013      299.79801      306.26653      297.2991       260.5644       55920.71       15835.342      29           
   1707000  -2479.2314      20.494219     -2499.7256      1.360611       221.12995      256.6958       316.94534      291.29055      278.95973      56634.353      16037.428      31           
   1708000  -2480.4801      19.944582     -2500.4247      1.360611       215.19945      313.34434      304.47373      283.62055      243.29874      53760.601      15223.653      31           
   1709000  -2478.8308      21.070154     -2499.901       1.360611       227.34422      313.22142      321.9331       301.97491      259.02673      56952.404      16127.492      29           
   1710000  -2479.9254      20.598873     -2500.5243      1.360611       222.25916      262.81558      303.29972      313.44131      281.93017      56456.825      15987.156      27           
   1711000  -2477.2782      22.230836     -2499.509       1.360611       239.86783      398.38171      334.55453      320.66299      266.65418      57326.197      16233.341      24           
   1712000  -2479.5153      19.42398      -2498.9392      1.360611       209.58222      331.48295      301.42898      261.40645      267.90463      56697.517      16055.315      26           
   1713000  -2478.7965      20.795499     -2499.592       1.360611       224.38073      288.49207      317.15662      296.72302      285.74158      56155.363      15901.79       26           
   1714000  -2479.1688      20.778259     -2499.947       1.360611       224.19471      243.08668      316.52946      306.00573      274.24146      56868.162      16103.637      29           
   1715000  -2478.8043      21.696545     -2500.5008      1.360611       234.1029       283.86707      292.18965      371.76112      283.88219      55159.655      15619.83       32           
   1716000  -2481.2605      18.971522     -2500.232       1.360611       204.70026      276.51013      276.82897      286.61306      265.50776      56877.633      16106.319      27           
   1717000  -2479.496       20.38804      -2499.884       1.360611       219.98429      316.76364      302.3354       300.12699      272.88909      54601.83       15461.868      28           
   1718000  -2480.3533      19.395912     -2499.7492      1.360611       209.27937      239.11587      297.49656      277.84061      271.61231      57182.315      16192.597      29           
   1719000  -2480.221       20.068387     -2500.2893      1.360611       216.53528      328.29299      302.5046       281.3508       288.4553       55028.325      15582.641      33           
   1720000  -2479.7549      20.972207     -2500.7271      1.360611       226.28738      352.78607      288.42989      334.55249      302.08852      55586.056      15740.577      27           
   1721000  -2480.0768      20.755081     -2500.8319      1.360611       223.94462      387.93215      292.41188      313.93872      293.82755      55897.426      15828.749      32           
   1722000  -2480.2154      20.23043      -2500.4459      1.360611       218.28371      286.87206      300.02833      300.88011      276.58081      55396.939      15687.023      29           
   1723000  -2479.7107      21.233685     -2500.9444      1.360611       229.1087       323.35713      331.74699      289.96121      276.52355      56874.772      16105.509      27           
   1724000  -2480.5126      19.582477     -2500.095       1.360611       211.29237      339.7835       291.13579      282.58223      257.68956      54250.064      15362.257      29           
   1725000  -2480.1631      20.49686      -2500.6599      1.360611       221.15845      348.27742      300.5646       304.63646      253.12319      57435.985      16264.43       33           
   1726000  -2481.2817      18.164034     -2499.4458      1.360611       195.98757      346.4328       263.43525      265.7849       252.87712      54681.27       15484.364      27           
   1727000  -2478.8279      20.763004     -2499.5909      1.360611       224.03011      328.41581      293.61616      329.36283      267.85062      56350.676      15957.098      23           
   1728000  -2478.9554      20.534355     -2499.4897      1.360611       221.56302      274.89869      323.68577      283.50347      259.69753      55307.849      15661.795      22           
   1729000  -2478.8788      20.534395     -2499.4132      1.360611       221.56345      265.94094      304.32794      311.05855      269.96728      56746.446      16069.17       21           
   1730000  -2480.5417      20.091573     -2500.6332      1.360611       216.78546      294.63428      292.8059       306.60003      270.46541      56046.292      15870.904      20           
   1731000  -2477.0833      21.148623     -2498.2319      1.360611       228.19089      391.4259       321.44639      298.47387      274.53227      55502.149      15716.816      18           
   1732000  -2477.977       21.928356     -2499.9054      1.360611       236.6041       343.3591       340.38187      304.78576      282.8375       56975.336      16133.986      19           
   1733000  -2478.4026      20.71465      -2499.1173      1.360611       223.50838      298.51268      307.48585      309.37683      275.24172      55483.184      15711.446      17           
   1734000  -2478.5982      20.490813     -2499.089       1.360611       221.09321      315.03291      316.13478      287.2479       266.25323      57568.836      16302.05       20           
   1735000  -2478.0997      20.389129     -2498.4888      1.360611       219.99605      331.03353      306.28529      300.72262      241.24586      54864.563      15536.268      22           
   1736000  -2478.9415      20.027777     -2498.9693      1.360611       216.09711      317.7686       295.05279      304.45945      239.05648      56987.65       16137.473      21           
   1737000  -2478.2192      20.556425     -2498.7756      1.360611       221.80115      322.26784      305.59919      310.04005      243.57315      55703.745      15773.903      19           
   1738000  -2480.0857      19.575372     -2499.6611      1.360611       211.21572      299.58751      303.95056      271.83481      247.59497      57398.656      16253.859      29           
   1739000  -2478.8943      21.423442     -2500.3178      1.360611       231.15615      305.54691      314.60601      328.06542      269.91998      54696.777      15488.755      20           
   1740000  -2479.9578      19.586816     -2499.5446      1.360611       211.3392       408.36753      278.51588      295.45275      259.26589      56120.753      15891.989      23           
   1741000  -2480.1058      19.831913     -2499.9377      1.360611       213.98376      286.49662      286.28453      308.11749      261.09766      55407.111      15689.904      23           
   1742000  -2480.7313      19.962443     -2500.6937      1.360611       215.39216      358.29838      280.27844      314.42759      250.26345      55628.18       15752.505      26           
   1743000  -2479.6245      19.911904     -2499.5364      1.360611       214.84685      253.43685      295.45375      299.51557      277.60562      57344.211      16238.442      31           
   1744000  -2480.2237      20.011951     -2500.2357      1.360611       215.92634      248.99397      304.1155       291.00532      279.7964       54691.383      15487.228      30           
   1745000  -2480.1441      19.840467     -2499.9846      1.360611       214.07605      372.26351      270.55398      313.93212      281.06983      57011.729      16144.291      30           
   1746000  -2480.9735      19.657524     -2500.631       1.360611       212.10212      306.2192       279.77794      305.34496      272.90608      55848.203      15814.81       25           
   1747000  -2481.6482      19.281795     -2500.93        1.360611       208.04806      383.49006      279.33764      280.08464      284.10166      56777.486      16077.96       22           
   1748000  -2480.3275      19.828418     -2500.1559      1.360611       213.94605      255.22904      286.8371       304.99437      289.24902      55825.668      15808.429      23           
   1749000  -2479.0233      20.935297     -2499.9586      1.360611       225.88913      320.5744       298.17424      327.59888      279.64844      57194.748      16196.118      25           
   1750000  -2479.5343      19.53483      -2499.0691      1.360611       210.77827      252.22589      298.49405      279.6902       276.95368      55091.492      15600.529      28           
   1751000  -2480.3707      19.252634     -2499.6234      1.360611       207.73342      264.84662      268.84626      308.05085      282.13096      56360.155      15959.782      23           
   1752000  -2478.973       20.745273     -2499.7183      1.360611       223.8388       328.09412      309.75869      298.96591      295.86376      55780.442      15795.622      25           
   1753000  -2478.3235      21.177124     -2499.5006      1.360611       228.49841      291.06819      337.80251      283.17064      281.52255      55100.859      15603.181      21           
   1754000  -2479.319       19.789566     -2499.1085      1.360611       213.52684      282.20209      300.98429      278.22291      293.37553      56155.637      15901.868      18           
   1755000  -2480.3421      20.297038     -2500.6392      1.360611       219.00239      258.71768      311.16185      284.77419      302.16337      55252.282      15646.06       20           
   1756000  -2481.0709      19.325902     -2500.3968      1.360611       208.52397      290.19013      286.53803      270.51951      331.69957      56261.288      15931.785      17           
   1757000  -2479.7698      19.366677     -2499.1365      1.360611       208.96393      248.21998      279.97573      288.92168      320.00744      55115.934      15607.45       20           
   1758000  -2481.3603      19.752509     -2501.1128      1.360611       213.12701      276.46409      296.17906      283.43624      298.81334      56881.513      16107.418      21           
   1759000  -2480.072       20.152503     -2500.2245      1.360611       217.44288      311.93119      293.34208      305.89756      265.6423       54462.551      15422.428      27           
   1760000  -2481.4491      18.858525     -2500.3076      1.360611       203.48103      236.72546      284.98475      271.57741      282.53738      56464.064      15989.206      24           
   1761000  -2479.7915      19.887167     -2499.6787      1.360611       214.57994      256.11517      290.66248      302.45028      287.12316      55563.666      15734.236      25           
   1762000  -2481.3514      19.796521     -2501.1479      1.360611       213.60188      326.32151      300.24035      281.14966      257.08227      56221.931      15920.641      25           
   1763000  -2478.1461      21.907516     -2500.0536      1.360611       236.37925      337.14705      320.25206      330.09027      298.81881      56950.423      16126.931      21           
   1764000  -2479.2349      20.967082     -2500.2019      1.360611       226.23209      361.28749      309.86779      301.06918      308.4592       55386.729      15684.132      25           
   1765000  -2478.1321      21.160998     -2499.2931      1.360611       228.32442      377.39293      295.2721       331.45195      299.38226      56657.654      16044.026      22           
   1766000  -2479.6409      20.500944     -2500.1418      1.360611       221.20252      397.21079      301.75338      296.53654      290.79314      55983.392      15853.092      18           
   1767000  -2478.8321      19.575167     -2498.4072      1.360611       211.2135       273.45061      289.93286      286.61581      295.35705      56106.305      15887.898      23           
   1768000  -2480.0694      19.270171     -2499.3396      1.360611       207.92264      349.34844      273.4266       287.01335      305.30414      54154.523      15335.202      23           
   1769000  -2479.603       20.043327     -2499.6463      1.360611       216.26489      339.68225      286.41176      301.47904      306.35402      57063.501      16158.952      21           
   1770000  -2479.0108      20.491804     -2499.5026      1.360611       221.1039       325.11613      303.1933       296.15514      308.77814      56588.861      16024.546      22           
   1771000  -2479.1356      20.203613     -2499.3393      1.360611       217.99436      289.49378      275.04159      329.50798      309.31724      56018.457      15863.022      19           
   1772000  -2478.1488      21.01254      -2499.1614      1.360611       226.72257      366.01599      307.90984      315.00195      261.8495       55622.109      15750.786      23           
   1773000  -2477.9372      21.19312      -2499.1303      1.360611       228.671        280.35741      300.97143      341.35322      268.11624      55094.897      15601.493      25           
   1774000  -2480.3658      19.182925     -2499.5487      1.360611       206.98126      304.4139       280.44424      289.16757      246.95019      57686.836      16335.465      29           
   1775000  -2479.8641      20.683158     -2500.5473      1.360611       223.16858      267.24096      316.44312      298.16598      273.47718      55587.853      15741.085      25           
   1776000  -2479.5849      20.289025     -2499.8739      1.360611       218.91594      326.05198      294.1234       306.13238      280.9003       56847.726      16097.85       25           
   1777000  -2479.7088      19.766752     -2499.4755      1.360611       213.28068      285.00116      282.99286      300.19497      309.91378      55109.775      15605.706      21           
   1778000  -2482.0432      18.980149     -2501.0233      1.360611       204.79334      267.22551      268.5723       295.51543      288.62313      57214.921      16201.83       24           
   1779000  -2480.4174      19.48148      -2499.8988      1.360611       210.20264      178.3146       277.95788      311.18335      301.86694      54698.154      15489.145      25           
   1780000  -2479.1187      20.019733     -2499.1384      1.360611       216.01031      305.3714       306.1462       277.71371      293.0589       55838.019      15811.926      24           
   1781000  -2480.1312      19.419122     -2499.5503      1.360611       209.5298       368.54089      280.03377      289.05278      259.64804      56656.189      16043.611      26           
   1782000  -2476.4941      21.500827     -2497.995       1.360611       231.99113      348.69492      306.88412      337.25929      268.66577      54945.718      15559.249      25           
   1783000  -2478.6643      18.985897     -2497.6502      1.360611       204.85536      220.05779      268.94854      300.42513      291.20339      56347.586      15956.223      24           
   1784000  -2480.5473      19.827819     -2500.3751      1.360611       213.93959      282.51281      310.10531      267.69831      288.63919      55983.964      15853.254      22           
   1785000  -2478.8065      21.459938     -2500.2665      1.360611       231.54994      288.45839      322.28681      314.53205      295.68209      56647.465      16041.141      22           
   1786000  -2477.186       21.700917     -2498.8869      1.360611       234.15007      363.51481      314.57086      323.18341      311.68281      56163.464      15904.084      26           
   1787000  -2478.511       21.212539     -2499.7235      1.360611       228.88053      396.98293      309.03257      308.19813      304.50328      55282.988      15654.755      26           
   1788000  -2480.0223      19.729861     -2499.7522      1.360611       212.88263      382.66475      276.61082      296.32113      301.69577      54667.94       15480.589      27           
   1789000  -2478.6769      21.337754     -2500.0147      1.360611       230.23158      357.74272      305.27783      326.57404      297.77124      56106.011      15887.815      22           
   1790000  -2479.0577      21.159393     -2500.2171      1.360611       228.3071       342.88852      302.19411      329.71685      274.14249      56035.768      15867.924      24           
   1791000  -2480.341       19.651869     -2499.9929      1.360611       212.04111      369.841        284.57271      289.75124      281.20366      55554.47       15731.632      22           
   1792000  -2480.4482      19.352423     -2499.8006      1.360611       208.81013      340.38533      285.43532      280.38789      275.76056      55693.411      15770.977      23           
   1793000  -2479.7019      20.147032     -2499.8489      1.360611       217.38385      307.31572      302.13168      294.24196      271.10992      56234.852      15924.299      19           
   1794000  -2479.0351      20.722622     -2499.7578      1.360611       223.5944       365.84587      318.55482      285.06879      282.76965      55802.055      15801.742      21           
   1795000  -2477.9107      20.807595     -2498.7183      1.360611       224.51124      308.39947      311.93879      304.62112      279.87214      55788.904      15798.018      21           
   1796000  -2479.7374      21.335146     -2501.0725      1.360611       230.20345      300.7827       312.69032      324.4864       285.75867      56163.49       15904.091      24           
   1797000  -2479.2455      19.431975     -2498.6775      1.360611       209.66848      388.7404       297.90996      263.94455      258.10061      55240.945      15642.85       22           
   1798000  -2478.3371      20.553361     -2498.8904      1.360611       221.76809      310.26244      306.10622      305.59835      268.92347      55665.807      15763.16       18           
   1799000  -2478.774       19.866523     -2498.6405      1.360611       214.35719      338.98696      300.02633      281.74982      275.91471      55981.748      15852.627      19           
   1800000  -2478.011       20.474584     -2498.4856      1.360611       220.9181       268.56908      301.41313      314.1636       265.18648      55310.591      15662.572      24           
   1801000  -2478.6428      19.723949     -2498.3667      1.360611       212.81884      413.5005       304.59887      260.50632      271.57806      56161.097      15903.414      22           
   1802000  -2480.3434      19.703019     -2500.0464      1.360611       212.59301      308.76074      301.43844      273.21503      283.03081      56648.235      16041.359      23           
   1803000  -2479.8471      20.092431     -2499.9395      1.360611       216.79472      327.26542      288.33548      306.64298      280.79342      56002.735      15858.57       24           
   1804000  -2480.0323      19.867331     -2499.8996      1.360611       214.36591      326.99615      291.1077       292.71102      279.29603      55371.314      15679.767      28           
   1805000  -2480.242       19.702459     -2499.9445      1.360611       212.58696      328.09006      297.98549      270.24555      308.67314      54437.839      15415.43       28           
   1806000  -2479.3115      19.814372     -2499.1258      1.360611       213.79449      258.47332      300.52691      282.02915      305.81144      55841.155      15812.814      29           
   1807000  -2479.6511      20.251329     -2499.9024      1.360611       218.50921      314.90054      278.78356      330.85748      260.60054      55861.143      15818.474      31           
   1808000  -2478.9077      20.454461     -2499.3622      1.360611       220.70097      347.02087      295.76271      303.97669      286.50158      56847.944      16097.911      34           
   1809000  -2478.4842      20.866394     -2499.3505      1.360611       225.14568      339.00673      299.83791      312.24079      319.37697      56331.086      15951.55       28           
   1810000  -2479.8204      20.452823     -2500.2733      1.360611       220.6833       361.4262       281.88449      323.22664      297.86279      57305.529      16227.488      25           
   1811000  -2479.9592      19.342476     -2499.3017      1.360611       208.7028       246.41515      286.03975      285.21574      299.08431      56265.536      15932.988      23           
   1812000  -2478.826       20.570736     -2499.3967      1.360611       221.95556      301.90049      303.18122      305.11335      292.91771      55638.718      15755.489      26           
   1813000  -2481.4757      19.501348     -2500.9771      1.360611       210.417        247.17705      288.9058       287.98187      299.9967       55139.12       15614.015      26           
   1814000  -2479.5008      20.227819     -2499.7286      1.360611       218.25553      297.87511      302.6278       290.70234      302.01956      55997.476      15857.08       28           
   1815000  -2478.6407      21.393787     -2500.0345      1.360611       230.83618      289.6084       310.42949      328.81171      303.99405      55778.597      15795.099      36           
   1816000  -2479.5031      20.264163     -2499.7673      1.360611       218.64768      293.31421      298.4767       300.88176      291.05535      55685.653      15768.78       29           
   1817000  -2480.5272      19.673449     -2500.2007      1.360611       212.27396      268.46555      298.08028      282.35177      281.35644      56101.783      15886.618      28           
   1818000  -2479.3706      20.770767     -2500.1413      1.360611       224.11387      337.84488      321.89164      284.34956      264.73008      56274.277      15935.463      34           
   1819000  -2480.8403      19.394552     -2500.2348      1.360611       209.26469      269.22353      294.62455      282.68932      244.48344      56100.324      15886.204      30           
   1820000  -2481.9183      18.448979     -2500.3673      1.360611       199.06208      324.96855      269.1181       270.44342      256.13899      55683.723      15768.234      30           
   1821000  -2479.2637      20.564679     -2499.8284      1.360611       221.89021      355.28485      307.54298      300.17798      236.5895       55962.256      15847.107      31           
   1822000  -2480.4069      19.944277     -2500.3511      1.360611       215.19615      341.51773      295.91046      289.6744       252.69696      55868.179      15820.467      31           
   1823000  -2479.2585      20.655924     -2499.9145      1.360611       222.87473      219.46828      324.42438      290.73912      290.87268      56598.34       16027.23       31           
   1824000  -2481.3676      19.513253     -2500.8808      1.360611       210.54546      231.45186      290.57389      288.41427      327.45218      56533.484      16008.865      36           
   1825000  -2481.317       18.680457     -2499.9974      1.360611       201.5597       255.07507      265.51071      287.70846      316.17435      55258.944      15647.947      36           
   1826000  -2479.6756      19.920983     -2499.5966      1.360611       214.94481      237.98896      277.38146      327.76479      291.12924      56719.787      16061.621      35           
   1827000  -2479.8784      20.708915     -2500.5873      1.360611       223.44649      282.00963      312.61391      299.88919      292.25011      55357.81       15675.943      32           
   1828000  -2479.9998      20.224357     -2500.2241      1.360611       218.21818      234.86547      299.05446      307.78283      296.68957      56076.184      15879.368      34           
   1829000  -2478.8109      21.224846     -2500.0357      1.360611       229.01333      319.00148      320.92173      297.96965      325.0326       55165.787      15621.567      37           
   1830000  -2479.4358      20.363918     -2499.7998      1.360611       219.72403      324.09769      299.42444      296.91453      301.87478      56373.922      15963.68       31           
   1831000  -2478.1823      21.280755     -2499.4631      1.360611       229.61658      328.58287      303.00892      329.53704      286.56906      55976.109      15851.03       38           
   1832000  -2478.8348      20.642837     -2499.4777      1.360611       222.73353      385.01463      310.38318      283.7097       282.73731      55387.951      15684.478      35           
   1833000  -2480.3348      19.694774     -2500.0296      1.360611       212.50405      346.38088      273.37671      299.20935      329.69643      56551.763      16014.041      34           
   1834000  -2478.677       20.317461     -2498.9944      1.360611       219.22276      249.31993      294.19548      309.48094      316.99781      55087.473      15599.39       23           
   1835000  -2478.5073      20.761444     -2499.2687      1.360611       224.01328      341.54695      295.01586      312.92149      330.7641       56773.762      16076.905      25           
   1836000  -2478.5211      20.009691     -2498.5308      1.360611       215.90196      332.22383      289.72392      294.70972      311.4411       54829.992      15526.478      24           
   1837000  -2479.8457      20.06259      -2499.9083      1.360611       216.47273      289.61667      281.15309      310.5757       334.61027      57018.57       16146.229      25           
   1838000  -2480.4311      19.791692     -2500.2228      1.360611       213.54978      252.32592      293.2957       281.88798      354.45446      54747.563      15503.136      25           
   1839000  -2477.3737      20.886931     -2498.2606      1.360611       225.36727      266.15618      309.92395      301.1834       361.53647      57780.245      16361.916      28           
   1840000  -2477.5303      21.921921     -2499.4522      1.360611       236.53467      286.86011      336.30991      305.19661      350.61689      56026.11       15865.189      32           
   1841000  -2478.3267      20.629443     -2498.9562      1.360611       222.58901      347.68901      298.33649      298.61716      344.93575      56661.118      16045.007      28           
   1842000  -2477.7358      21.013991     -2498.7498      1.360611       226.73823      279.44193      311.25007      303.66319      347.86498      55683.351      15768.128      25           
   1843000  -2476.9868      21.123803     -2498.1106      1.360611       227.92308      300.71236      305.78235      318.24659      323.8523       54421.216      15410.723      26           
   1844000  -2479.026       21.192499     -2500.2185      1.360611       228.66431      285.73118      300.86379      331.89979      315.53478      57170.054      16189.125      27           
   1845000  -2480.3663      20.001531     -2500.3679      1.360611       215.81391      243.08594      284.00394      313.26906      314.185        55006.894      15576.572      25           
   1846000  -2478.9046      20.436184     -2499.3408      1.360611       220.50377      287.1634       292.31401      314.63765      308.09914      57048.261      16154.636      26           
   1847000  -2477.9472      21.003322     -2498.9505      1.360611       226.62312      248.75685      321.22967      296.40929      325.86921      55329.758      15667.999      24           
   1848000  -2479.2496      20.067794     -2499.3174      1.360611       216.52888      273.18913      293.27989      297.4313       323.31402      56958.942      16129.343      27           
   1849000  -2481.9364      19.192704     -2501.1291      1.360611       207.08678      297.77704      275.20436      283.68939      333.64277      55819.861      15806.784      35           
   1850000  -2481.4008      18.947274     -2500.3481      1.360611       204.43862      312.1286       261.90683      290.48354      336.97427      55873.693      15822.028      33           
   1851000  -2479.5947      20.174584     -2499.7693      1.360611       217.68114      342.4712       283.28529      306.01515      324.16247      54977.459      15568.237      33           
   1852000  -2478.743       20.847836     -2499.5908      1.360611       224.94544      381.48196      298.13933      305.61059      325.81218      55794.748      15799.673      31           
   1853000  -2477.8505      21.657144     -2499.5076      1.360611       233.67776      323.4752       340.34674      285.84048      327.74893      56718.569      16061.276      26           
   1854000  -2479.5645      20.084907     -2499.6495      1.360611       216.71353      325.9073       307.90616      267.89943      331.09822      55644.672      15757.175      23           
   1855000  -2479.1938      20.663418     -2499.8572      1.360611       222.95559      375.93289      299.65363      293.12807      355.581        57097.368      16168.542      24           
   1856000  -2478.0997      21.214622     -2499.3144      1.360611       228.90301      343.01052      310.36994      301.83762      365.92397      56334.001      15952.376      25           
   1857000  -2477.5398      21.014531     -2498.5543      1.360611       226.74405      331.63052      304.60694      305.07174      356.57903      56497.915      15998.792      23           
   1858000  -2478.4924      21.231864     -2499.7242      1.360611       229.08905      346.35891      301.276        317.17613      353.92345      55887.039      15825.807      23           
   1859000  -2479.4825      19.98783      -2499.4703      1.360611       215.66609      281.5201       290.77915      288.66745      358.52209      55969.513      15849.162      23           
   1860000  -2480.0457      20.294172     -2500.3399      1.360611       218.97148      341.10893      298.4871       280.32402      371.98536      55836.826      15811.588      26           
   1861000  -2478.7369      20.30496      -2499.0419      1.360611       219.08788      367.16183      286.47737      300.45089      345.88861      56196.577      15913.461      27           
   1862000  -2479.4015      20.19975      -2499.6013      1.360611       217.95267      294.43581      273.8897       327.45489      327.476        56922.329      16118.976      27           
   1863000  -2479.7104      20.609585     -2500.32        1.360611       222.37474      249.75661      309.74229      300.10344      321.24761      54346.264      15389.499      30           
   1864000  -2479.4648      20.865235     -2500.33        1.360611       225.13317      312.073        305.67501      308.61684      312.37456      57925.557      16403.065      25           
   1865000  -2479.037       19.973965     -2499.011       1.360611       215.51648      257.58408      292.80994      299.11544      308.97453      53864.205      15252.991      28           
   1866000  -2480.3582      19.651806     -2500.01        1.360611       212.04043      295.047        282.93703      291.94494      326.54592      57256.127      16213.499      27           
   1867000  -2479.6624      20.496247     -2500.1586      1.360611       221.15183      307.82564      306.98359      288.34657      333.66558      55306.333      15661.366      28           
   1868000  -2479.0103      20.938034     -2499.9483      1.360611       225.91866      328.91908      299.70736      313.85939      335.50828      56953.351      16127.76       27           
   1869000  -2479.9846      20.266854     -2500.2515      1.360611       218.67672      415.26344      286.13007      303.26093      302.98588      54992.312      15572.443      22           
   1870000  -2479.209       20.666493     -2499.8755      1.360611       222.98877      427.48957      291.88253      305.1598       306.20918      56530.577      16008.041      28           
   1871000  -2478.6579      20.295351     -2498.9533      1.360611       218.9842       379.18156      296.91642      295.12811      287.64394      56841.015      16095.949      23           
   1872000  -2480.5672      19.881912     -2500.4491      1.360611       214.52324      349.58657      288.26164      293.29278      293.0195       56549.058      16013.275      23           
   1873000  -2481.5794      19.613074     -2501.1925      1.360611       211.62252      359.81793      278.01663      294.68436      286.68902      56772.655      16076.592      30           
   1874000  -2479.9068      20.345111     -2500.2519      1.360611       219.5211       304.11456      296.65185      303.65056      300.70479      53933.542      15272.626      29           
   1875000  -2479.6514      20.874764     -2500.5262      1.360611       225.23599      301.37561      309.73713      309.67753      284.57299      58295.71       16507.883      25           
   1876000  -2479.8614      19.092814     -2498.9543      1.360611       206.00898      213.25211      269.1031       301.64514      324.23593      55196.722      15630.327      28           
   1877000  -2479.5191      20.403889     -2499.923       1.360611       220.15531      278.6588       290.61615      317.65225      309.07647      56946.706      16125.878      31           
   1878000  -2479.2775      19.877238     -2499.1547      1.360611       214.47281      224.95346      281.42622      313.3203       323.89581      53811.785      15238.148      26           
   1879000  -2480.1429      20.406564     -2500.5495      1.360611       220.18417      359.89461      299.74172      284.52729      352.3568       57012.139      16144.407      29           
   1880000  -2478.1137      21.39467      -2499.5084      1.360611       230.8457       295.23924      295.95519      342.02274      344.34094      56079.114      15880.198      30           
   1881000  -2479.3866      20.633642     -2500.0202      1.360611       222.63431      351.39256      296.67637      302.10523      333.39136      55533.144      15725.593      31           
   1882000  -2477.2022      21.666083     -2498.8683      1.360611       233.77422      299.79046      298.33977      350.38602      329.99179      55998.617      15857.403      23           
   1883000  -2478.5313      20.535299     -2499.0666      1.360611       221.57321      376.17445      304.25154      286.62408      327.69996      55011.552      15577.892      23           
   1884000  -2479.9944      19.764144     -2499.7586      1.360611       213.25255      292.88924      299.32328      275.35118      311.64879      57634.067      16320.522      27           
   1885000  -2479.6672      19.98362      -2499.6508      1.360611       215.62066      332.15147      294.42926      287.22203      306.51509      55589.662      15741.598      27           
   1886000  -2479.249       19.95786      -2499.2069      1.360611       215.34272      308.47615      294.23332      278.44285      361.09573      56940.719      16124.183      26           
   1887000  -2480.158       20.375181     -2500.5332      1.360611       219.84556      293.64075      301.98379      287.80423      350.61928      54877.11       15539.821      24           
   1888000  -2478.9453      20.304525     -2499.2498      1.360611       219.08318      271.94102      303.83629      286.25788      338.29928      55968.249      15848.804      19           
   1889000  -2477.3707      21.319973     -2498.6906      1.360611       230.03974      333.56835      299.84649      330.08795      327.4477       55584.456      15740.123      21           
   1890000  -2478.3448      20.829057     -2499.1738      1.360611       224.74281      254.89305      325.25011      287.11755      302.85606      55966.369      15848.272      24           
   1891000  -2478.6612      21.295853     -2499.9571      1.360611       229.77948      380.75545      305.08531      319.06486      312.69591      55869.232      15820.765      23           
   1892000  -2478.4335      21.407991     -2499.8415      1.360611       230.98944      283.41641      314.4518       317.47957      333.58319      56200.598      15914.599      25           
   1893000  -2480.083       20.593982     -2500.677       1.360611       222.20638      236.50346      283.69332      331.1396       352.57032      57126.592      16176.818      24           
   1894000  -2480.5691      19.235933     -2499.8051      1.360611       207.55322      342.89108      277.85827      277.88367      313.59776      55067.481      15593.729      28           
   1895000  -2479.9741      21.11103      -2501.0852      1.360611       227.78527      396.38172      319.55018      292.71153      265.40824      57015.632      16145.397      30           
   1896000  -2479.7986      20.013766     -2499.8123      1.360611       215.94593      270.27496      308.89193      287.50057      234.58343      55436.595      15698.253      31           
   1897000  -2480.3145      20.093321     -2500.4078      1.360611       216.80432      288.21039      310.03662      276.46845      298.93327      57144.998      16182.03       32           
   1898000  -2478.854       20.361452     -2499.2154      1.360611       219.69742      258.74729      303.16915      296.19517      341.96292      56985.942      16136.989      32           
   1899000  -2480.6421      19.321102     -2499.9632      1.360611       208.47217      247.81653      268.24368      306.31498      338.31128      55160.612      15620.101      31           
   1900000  -2479.5067      19.986394     -2499.4931      1.360611       215.65059      277.68122      300.11771      289.45362      293.39113      56702.675      16056.775      34           
   1901000  -2479.9294      19.857868     -2499.7873      1.360611       214.26381      245.69467      304.07126      287.00081      267.13494      55692.448      15770.704      30           
   1902000  -2479.191       20.177088     -2499.3681      1.360611       217.70816      320.74671      295.23095      299.4522       277.03101      57944.686      16408.481      33           
   1903000  -2477.841       20.786606     -2498.6276      1.360611       224.28478      286.35527      291.68988      337.77035      261.41506      54596.76       15460.433      33           
   1904000  -2479.347       20.170298     -2499.5173      1.360611       217.63489      334.18992      293.31409      300.23263      272.78093      56529.046      16007.608      33           
   1905000  -2479.2118      21.491285     -2500.7031      1.360611       231.88817      342.65314      307.61171      324.06535      327.36378      55509.685      15718.95       33           
   1906000  -2480.1327      19.654274     -2499.787       1.360611       212.06706      298.55446      279.92766      301.68095      295.73903      56950.875      16127.059      25           
   1907000  -2479.6777      20.756688     -2500.4343      1.360611       223.96196      322.03708      293.63729      326.76219      272.40091      56010.009      15860.629      31           
   1908000  -2479.8779      20.725608     -2500.6036      1.360611       223.62661      395.37785      317.15153      278.1194       269.67033      56048.176      15871.437      33           
   1909000  -2480.3462      20.065069     -2500.4113      1.360611       216.49948      416.49186      283.8772       296.02339      301.39923      56627.399      16035.459      26           
   1910000  -2480.2045      18.844734     -2499.0492      1.360611       203.33223      373.97634      269.54625      276.62833      283.86473      55061.159      15591.939      24           
   1911000  -2479.964       18.906124     -2498.8701      1.360611       203.99462      196.23112      280.47781      285.83511      274.86026      57125.646      16176.55       22           
   1912000  -2478.8822      20.136816     -2499.019       1.360611       217.27362      259.97199      285.09751      322.32745      279.04469      54954.911      15561.852      28           
   1913000  -2479.723       19.274833     -2498.9979      1.360611       207.97294      279.33344      282.41129      285.59295      290.46443      57511.772      16285.891      21           
   1914000  -2479.401       19.801802     -2499.2028      1.360611       213.65887      184.20426      291.05557      299.2789       316.19082      55520.153      15721.914      21           
   1915000  -2480.3608      19.877628     -2500.2385      1.360611       214.47702      253.95307      283.57476      304.0491       328.83177      57291.552      16223.53       25           
   1916000  -2479.0894      20.393709     -2499.4831      1.360611       220.04546      306.86166      294.36121      301.38617      338.45166      56240.536      15925.909      27           
   1917000  -2480.2286      20.227716     -2500.4563      1.360611       218.25443      310.3183       290.05212      295.8034       366.60802      55030.324      15583.207      27           
   1918000  -2478.2436      21.370345     -2499.614       1.360611       230.58324      433.14371      291.15568      331.35121      328.21637      56748.94       16069.876      27           
   1919000  -2480.2644      19.712991     -2499.9774      1.360611       212.70061      303.58785      293.75429      289.39038      259.64376      55459.611      15704.771      28           
   1920000  -2480.3731      19.252246     -2499.6254      1.360611       207.72923      200.94173      307.32929      260.17147      280.65231      57868.757      16386.98       25           
   1921000  -2480.211       19.471344     -2499.6824      1.360611       210.09326      255.56575      297.55895      280.32378      265.07211      54459.01       15421.425      32           
   1922000  -2480.1575      20.022746     -2500.1803      1.360611       216.04283      233.72333      295.41566      303.8194       290.66089      57718.231      16344.355      27           
   1923000  -2478.6488      20.919285     -2499.5681      1.360611       225.71636      243.38508      312.90067      307.18896      326.44577      55351.345      15674.112      27           
   1924000  -2480.4436      20.399762     -2500.8434      1.360611       220.11077      237.8307       306.10416      291.6467       352.04279      57096.811      16168.384      27           
   1925000  -2480.1151      19.715841     -2499.8309      1.360611       212.73136      197.48333      284.46101      302.3241       355.68675      56798.249      16083.839      30           
   1926000  -2479.1873      20.500032     -2499.6873      1.360611       221.19268      289.70346      298.00948      306.54027      323.08248      55643.009      15756.704      30           
   1927000  -2480.7176      19.85877      -2500.5763      1.360611       214.27354      267.42976      299.3981       286.96196      289.90489      56798.36       16083.871      30           
   1928000  -2478.161       20.781838     -2498.9429      1.360611       224.23332      303.24626      299.67553      324.65068      260.1894       54666.407      15480.155      27           
   1929000  -2480.1793      19.683974     -2499.8632      1.360611       212.38752      241.43412      307.76008      276.82962      259.20352      57762.55       16356.905      30           
   1930000  -2479.7058      20.003852     -2499.7097      1.360611       215.83896      249.24724      293.54818      302.31049      297.90837      54089.098      15316.676      27           
   1931000  -2478.7688      20.559051     -2499.3278      1.360611       221.82948      272.21258      312.45539      294.11778      303.02494      57508.632      16285.002      32           
   1932000  -2479.5081      20.217415     -2499.7255      1.360611       218.14328      281.77593      303.5962       287.5336       326.72271      54619.39       15466.841      32           
   1933000  -2478.6563      20.434931     -2499.0913      1.360611       220.49025      397.89645      294.74021      289.00856      344.69407      57272.185      16218.046      27           
   1934000  -2479.5017      19.985397     -2499.4871      1.360611       215.63983      318.03616      288.77564      288.99926      355.81346      54925.624      15553.559      29           
   1935000  -2480.8427      19.706614     -2500.5493      1.360611       212.6318       273.06245      277.26171      300.93413      350.33509      56816.58       16089.03       28           
   1936000  -2479.5309      20.200676     -2499.7316      1.360611       217.96267      325.75661      281.69007      312.88331      316.13635      55001.601      15575.074      31           
   1937000  -2478.299       20.912221     -2499.2112      1.360611       225.64015      269.48058      303.68475      311.12907      352.8753       55932.436      15838.663      25           
   1938000  -2479.7508      19.62552      -2499.3763      1.360611       211.75681      266.6378       284.53798      288.47001      337.51169      57262.742      16215.372      21           
   1939000  -2478.2576      21.326662     -2499.5843      1.360611       230.11191      333.07555      304.26497      323.34081      331.35216      54984.254      15570.161      24           
   1940000  -2479.947       19.972319     -2499.9194      1.360611       215.49872      220.04867      292.42744      296.5548       350.19038      56379.505      15965.261      26           
   1941000  -2479.4333      20.384577     -2499.8179      1.360611       219.94694      245.58865      291.39303      310.47656      357.78802      53781.572      15229.592      27           
   1942000  -2480.3672      20.147485     -2500.5147      1.360611       217.38875      334.54823      284.16401      298.41472      364.83712      58447.12       16550.758      26           
   1943000  -2477.8333      21.771931     -2499.6053      1.360611       234.91631      343.99363      312.40105      327.14831      338.41453      55113.988      15606.899      22           
   1944000  -2477.0371      21.384426     -2498.4215      1.360611       230.73517      272.14359      310.57904      320.66763      340.99756      56921.563      16118.759      20           
   1945000  -2478.8991      20.084516     -2498.9836      1.360611       216.70931      234.29646      300.95329      287.39089      340.49219      55349.99       15673.729      24           
   1946000  -2477.1669      21.714794     -2498.8817      1.360611       234.2998       309.22318      325.10181      310.44211      340.23075      56398.434      15970.622      28           
   1947000  -2478.6426      19.906445     -2498.549       1.360611       214.78795      263.78088      296.34899      284.92074      331.07204      56548.701      16013.174      23           
   1948000  -2478.0439      20.992179     -2499.0361      1.360611       226.50288      320.37952      309.04419      302.64978      338.35405      54907.634      15548.465      25           
   1949000  -2479.5755      20.902969     -2500.4785      1.360611       225.54031      257.46106      315.11901      295.80193      351.98549      56928.401      16120.695      25           
   1950000  -2477.7894      21.064055     -2498.8534      1.360611       227.27841      311.41902      304.27136      318.56125      314.38364      55093.275      15601.033      27           
   1951000  -2477.3308      21.980315     -2499.3111      1.360611       237.16474      326.37272      323.41587      324.99365      318.93244      58049.925      16438.282      32           
   1952000  -2479.733       20.147522     -2499.8806      1.360611       217.38915      361.84501      286.01009      298.05268      322.50995      54844.943      15530.712      33           
   1953000  -2481.267       18.851364     -2500.1184      1.360611       203.40376      251.12835      274.84698      277.53751      335.24611      57367.07       16244.915      31           
   1954000  -2480.1165      20.777991     -2500.8945      1.360611       224.19182      272.39032      304.96812      307.73728      340.25862      55037.911      15585.356      31           
   1955000  -2478.8232      20.296334     -2499.1195      1.360611       218.9948       259.4989       295.9718       306.43225      317.49537      57046.092      16154.022      29           
   1956000  -2479.761       21.229819     -2500.9908      1.360611       229.06698      207.89737      314.17372      326.20437      324.56827      55556.996      15732.348      32           
   1957000  -2480.6681      19.963591     -2500.6317      1.360611       215.40455      312.4209       279.17133      308.96809      323.33811      55909.078      15832.048      31           
   1958000  -2479.3088      20.408946     -2499.7177      1.360611       220.20987      280.9356       288.12109      321.44298      305.95747      55926.267      15836.916      30           
   1959000  -2480.446       19.516574     -2499.9626      1.360611       210.58129      248.10944      308.16419      262.75667      286.40898      54718.011      15494.768      26           
   1960000  -2480.3097      21.530744     -2501.8405      1.360611       232.31393      343.63287      315.47679      326.63834      255.6388       56584.487      16023.307      28           
   1961000  -2479.8013      20.193997     -2499.9953      1.360611       217.8906       270.69961      293.09478      316.98547      247.97767      55110.753      15605.983      28           
   1962000  -2480.1303      20.233183     -2500.3634      1.360611       218.31342      248.21716      285.08415      328.80867      275.1934       57225.819      16204.916      29           
   1963000  -2478.7444      20.148994     -2498.8934      1.360611       217.40502      277.12146      284.81112      320.05612      284.16488      54634.493      15471.118      34           
   1964000  -2477.9149      22.331995     -2500.2469      1.360611       240.95932      272.80206      336.30821      331.79752      298.22935      57656.045      16326.745      30           
   1965000  -2478.2715      20.680421     -2498.9519      1.360611       223.13905      306.17722      290.29526      326.49038      301.34461      54763.37       15507.613      30           
   1966000  -2480.3248      19.545914     -2499.8707      1.360611       210.89787      250.29132      292.07074      286.28852      302.8075       56787.129      16080.69       33           
   1967000  -2479.3637      20.780797     -2500.1445      1.360611       224.22209      287.28147      311.72162      302.88675      295.29319      57338.083      16236.707      33           
   1968000  -2479.477       19.502927     -2498.9799      1.360611       210.43405      305.99107      271.53964      287.82682      414.93502      56359.939      15959.721      33           
   1969000  -2480.1815      20.261353     -2500.4429      1.360611       218.61736      239.0364       300.96426      290.86151      379.5976       56403.865      15972.16       30           
   1970000  -2479.6067      19.623548     -2499.2303      1.360611       211.73553      317.50742      283.49021      282.34191      351.53283      55462.52       15705.594      27           
   1971000  -2478.6043      19.70668      -2498.311       1.360611       212.63252      322.76239      295.33208      280.86597      276.18148      57003.931      16142.083      28           
   1972000  -2479.6278      20.531293     -2500.1591      1.360611       221.52998      236.10818      292.31789      330.44587      277.54579      55504.522      15717.488      23           
   1973000  -2479.1417      19.846806     -2498.9885      1.360611       214.14445      313.37355      290.77252      289.52736      305.53796      58400.347      16537.513      29           
   1974000  -2480.407       19.54079      -2499.9478      1.360611       210.84258      206.19457      284.30484      298.73152      323.98942      54589.572      15458.397      29           
   1975000  -2479.1151      20.822668     -2499.9378      1.360611       224.67387      285.40193      302.50914      313.9828       320.56434      57694.407      16337.609      29           
   1976000  -2480.1765      19.473542     -2499.65        1.360611       210.11699      241.96135      292.33033      276.05791      332.56726      54577.832      15455.073      25           
   1977000  -2478.5494      20.871335     -2499.4208      1.360611       225.19899      262.02016      307.18639      309.24365      344.94286      55732.522      15782.052      32           
   1978000  -2480.6253      21.05748      -2501.6827      1.360611       227.20747      366.86216      279.53246      337.04402      364.2406       56149.101      15900.017      35           
   1979000  -2478.5422      21.344255     -2499.8865      1.360611       230.30174      329.14762      297.99317      330.11772      354.66815      54806.871      15519.931      33           
   1980000  -2477.9528      20.717568     -2498.6704      1.360611       223.53986      313.20109      293.3228       317.8896       328.11838      57133.897      16178.886      34           
   1981000  -2477.7986      21.082902     -2498.8815      1.360611       227.48177      263.2567       314.62391      313.99155      298.50015      55225.052      15638.349      29           
   1982000  -2478.1252      20.64301      -2498.7682      1.360611       222.73539      333.18097      305.81189      308.51096      237.73471      56687.372      16052.442      31           
   1983000  -2479.0788      20.25318      -2499.3319      1.360611       218.52918      266.52857      294.41346      316.99204      254.48146      54827.76       15525.846      30           
   1984000  -2478.2473      21.132955     -2499.3802      1.360611       228.02183      231.76081      320.4239       318.37734      265.33471      57012.086      16144.393      32           
   1985000  -2479.5636      20.412497     -2499.9761      1.360611       220.24819      274.38842      310.09948      298.72331      259.54802      54412.463      15408.244      34           
   1986000  -2478.4277      20.824285     -2499.252       1.360611       224.69132      223.63931      324.27628      300.29051      277.01694      56604.294      16028.916      32           
   1987000  -2477.7042      20.347071     -2498.0513      1.360611       219.54224      321.67397      285.10031      315.76661      312.99872      56063.777      15875.855      35           
   1988000  -2479.3756      20.800876     -2500.1765      1.360611       224.43875      306.03719      314.91539      294.94105      302.56061      54838.253      15528.818      30           
   1989000  -2479.6356      21.069527     -2500.7052      1.360611       227.33746      263.99724      299.95249      328.41558      343.17647      57345.152      16238.708      31           
   1990000  -2480.5831      20.375354     -2500.9585      1.360611       219.84742      230.63612      300.32918      303.28357      351.8169       54723.979      15496.458      31           
   1991000  -2480.5222      20.334769     -2500.8569      1.360611       219.40951      209.33144      318.08973      286.63008      315.56045      57631.646      16319.836      35           
   1992000  -2479.7048      20.571966     -2500.2767      1.360611       221.96884      280.0113       298.695        314.40135      295.59937      54831.24       15526.832      29           
   1993000  -2479.7054      20.548442     -2500.2538      1.360611       221.71502      303.73918      298.09982      309.17959      305.05077      57126.013      16176.654      26           
   1994000  -2479.8432      19.905242     -2499.7485      1.360611       214.77497      288.62742      302.26404      280.90566      292.47755      54742.793      15501.786      25           
   1995000  -2479.217       20.629069     -2499.8461      1.360611       222.58497      264.41771      310.97772      301.36266      295.96338      56050.06       15871.971      31           
   1996000  -2480.9225      19.855059     -2500.7775      1.360611       214.23351      295.38648      304.93073      276.30122      280.69316      56072.411      15878.3        30           
   1997000  -2479.7382      19.964991     -2499.7032      1.360611       215.41966      337.11035      282.83837      305.02781      295.70125      54981.041      15569.251      26           
   1998000  -2479.3966      20.016306     -2499.413       1.360611       215.97333      284.06561      314.80248      265.53481      305.56914      57554.602      16298.019      29           
   1999000  -2479.2578      19.881754     -2499.1395      1.360611       214.52154      313.49625      281.72716      307.26457      289.90824      55982.008      15852.7        27           
   2000000  -2480.4178      19.704947     -2500.1227      1.360611       212.61381      269.29636      310.72222      266.9219       269.11641      58085.71       16448.416      24           
   2001000  -2480.1146      19.843839     -2499.9584      1.360611       214.11244      382.64056      292.07595      289.3881       234.20872      53747.295      15219.886      29           
   2002000  -2479.3176      19.885327     -2499.2029      1.360611       214.56009      351.60197      304.17741      270.7622       281.90939      57369.278      16245.54       26           
   2003000  -2479.1335      20.099102     -2499.2326      1.360611       216.8667       242.87756      301.80729      299.26312      272.28542      54636.03       15471.553      25           
   2004000  -2479.1932      20.271907     -2499.4651      1.360611       218.73123      236.33383      310.96233      293.48166      277.91544      57804.915      16368.902      28           
   2005000  -2478.5616      19.76619      -2498.3278      1.360611       213.27461      255.48466      282.18525      308.79848      294.66009      56115.446      15890.486      27           
   2006000  -2479.9124      19.912991     -2499.8254      1.360611       214.85859      325.37783      269.26625      324.79547      291.84993      55198.588      15630.855      27           
   2007000  -2480.0774      20.33773      -2500.4152      1.360611       219.44146      295.09073      303.52879      299.07954      276.23553      56714.779      16060.203      24           
   2008000  -2481.146       19.682207     -2500.8282      1.360611       212.36845      280.25161      293.54685      289.10024      273.46973      54619.489      15466.869      30           
   2009000  -2479.1081      20.069758     -2499.1779      1.360611       216.55008      277.24628      291.00574      312.34719      254.27884      58821.625      16656.809      29           
   2010000  -2479.0675      20.422967     -2499.4904      1.360611       220.36116      225.35984      291.84436      334.09409      256.31971      54543.644      15445.392      32           
   2011000  -2479.9185      19.053588     -2498.9721      1.360611       205.58573      256.19137      281.58957      286.38288      263.47776      57114.194      16173.307      32           
   2012000  -2477.2672      21.028321     -2498.2955      1.360611       226.89284      310.66975      305.15571      322.05231      277.02424      53960.399      15280.231      32           
   2013000  -2479.154       19.560791     -2498.7148      1.360611       211.05839      288.2257       315.47218      252.20888      265.84706      57533.394      16292.014      29           
   2014000  -2479.002       20.265818     -2499.2679      1.360611       218.66553      321.4281       307.10639      288.69649      266.29425      56084.255      15881.654      29           
   2015000  -2480.4133      20.002134     -2500.4155      1.360611       215.82042      435.56648      312.51151      252.36152      259.11293      54752.701      15504.591      31           
   2016000  -2479.0008      21.011285     -2500.0121      1.360611       226.70903      339.24655      298.09349      327.1154       276.77961      56093.042      15884.142      31           
   2017000  -2477.6472      21.706752     -2499.354       1.360611       234.21302      340.1026       314.59179      330.81893      282.70224      55800.455      15801.289      30           
   2018000  -2480.1997      18.877644     -2499.0773      1.360611       203.68732      273.51605      263.62857      305.01182      249.94518      57357.627      16242.241      31           
   2019000  -2480.1624      18.985902     -2499.1483      1.360611       204.85541      272.2286       285.48208      279.94667      236.36482      54453.875      15419.971      30           
   2020000  -2480.1832      20.04095      -2500.2241      1.360611       216.23924      313.95077      302.47938      288.3831       254.45578      57150.784      16183.668      30           
   2021000  -2480.2704      20.795091     -2501.0655      1.360611       224.37632      290.79345      326.44487      287.89929      255.83423      53884.226      15258.661      33           
   2022000  -2478.8676      20.164083     -2499.0317      1.360611       217.56783      320.66572      297.09064      297.64451      268.29807      57175.169      16190.574      33           
   2023000  -2480.8716      20.300038     -2501.1716      1.360611       219.03477      300.03323      299.64376      300.56793      284.58918      54261.008      15365.356      34           
   2024000  -2481.1777      19.90719      -2501.0848      1.360611       214.79599      333.48821      299.51692      275.92678      301.08228      55632.566      15753.747      35           
   2025000  -2479.2776      20.575778     -2499.8533      1.360611       222.00996      306.00498      282.61945      333.0601       301.91426      56200.747      15914.642      32           
   2026000  -2479.0707      20.058313     -2499.1291      1.360611       216.42659      296.93373      299.93941      284.04802      326.5877       54979.327      15568.766      35           
   2027000  -2478.2491      20.947477     -2499.1966      1.360611       226.02055      301.04024      300.26543      327.64987      273.22135      57330.237      16234.485      35           
   2028000  -2479.2469      20.552991     -2499.7999      1.360611       221.76409      355.07794      287.00029      323.68356      275.09305      53911.112      15266.275      28           
   2029000  -2479.4973      19.935694     -2499.433       1.360611       215.10355      351.27882      296.00806      287.98507      270.65957      57617.535      16315.84       24           
   2030000  -2480.4185      19.91752      -2500.336       1.360611       214.90744      389.96119      280.50708      300.56472      297.0095       54659.461      15478.188      23           
   2031000  -2479.4955      20.275878     -2499.7714      1.360611       218.77409      316.21106      290.15001      309.99318      296.51174      57064.508      16159.237      22           
   2032000  -2478.7875      20.697231     -2499.4847      1.360611       223.32043      373.94509      299.14981      300.368        322.66032      54295.595      15375.15       27           
   2033000  -2478.4468      20.399512     -2498.8463      1.360611       220.10808      332.2776       304.73541      285.36798      326.34622      57412.944      16257.905      27           
   2034000  -2480.1309      19.917819     -2500.0487      1.360611       214.91067      338.12272      284.82399      285.92475      373.07701      56056.29       15873.735      28           
   2035000  -2479.3176      20.628239     -2499.9458      1.360611       222.57601      335.92832      294.86872      303.69812      357.84236      56321.663      15948.882      31           
   2036000  -2479.5875      21.02591      -2500.6134      1.360611       226.86683      280.28334      312.54497      295.59388      391.42426      57358.602      16242.517      27           
   2037000  -2479.521       20.339041     -2499.8601      1.360611       219.45561      224.2835       314.93592      278.12027      372.9319       54480.181      15427.42       32           
   2038000  -2478.9938      21.091406     -2500.0852      1.360611       227.57353      265.56201      299.80408      323.78334      372.64266      57945.892      16408.823      30           
   2039000  -2479.7528      20.585653     -2500.3385      1.360611       222.11652      369.18172      282.27307      322.56541      313.32548      53472.634      15142.109      29           
   2040000  -2479.0444      19.938418     -2498.9828      1.360611       215.13294      271.9235       269.04918      324.73596      343.46277      57963.24       16413.735      27           
   2041000  -2479.3692      20.911223     -2500.2804      1.360611       225.62937      250.92722      309.92329      303.84337      356.36513      54688.417      15486.388      25           
   2042000  -2478.1703      20.746329     -2498.9166      1.360611       223.85019      292.73498      299.26916      303.22117      384.8526       56728.906      16064.203      29           
   2043000  -2479.2005      19.790294     -2498.9908      1.360611       213.5347       302.84041      279.17602      287.99902      399.623        55525.513      15723.432      29           
   2044000  -2476.6911      20.784674     -2497.4757      1.360611       224.26392      271.91317      303.87253      301.30204      375.49338      55505.079      15717.646      27           
   2045000  -2477.7401      21.034177     -2498.7742      1.360611       226.95603      323.85289      294.86908      312.06338      408.95676      56729.397      16064.342      25           
   2046000  -2478.8106      21.238074     -2500.0486      1.360611       229.15605      335.93245      312.69631      296.94489      386.12139      54994.57       15573.083      27           
   2047000  -2479.3239      20.88545      -2500.2093      1.360611       225.35129      270.44036      291.26302      321.03759      385.1029       57646.464      16324.032      25           
   2048000  -2476.8297      20.836933     -2497.6666      1.360611       224.8278       262.6371       290.27562      320.79353      390.41473      54666.535      15480.191      24           
   2049000  -2479.1698      20.797921     -2499.9678      1.360611       224.40686      310.38827      295.94659      309.24912      366.86043      56951.581      16127.259      24           
   2050000  -2478.8713      21.206969     -2500.0783      1.360611       228.82043      296.83895      305.48971      304.79903      405.54763      53975.604      15284.537      23           
   2051000  -2479.4992      19.949077     -2499.4482      1.360611       215.24795      265.61268      276.02445      294.5122       438.7538       56876.758      16106.071      24           
   2052000  -2479.1251      20.616361     -2499.7414      1.360611       222.44785      344.90701      287.23618      296.11555      448.10926      55360.566      15676.723      28           
   2053000  -2479.1985      20.872371     -2500.0708      1.360611       225.21016      320.36197      297.1519       291.90416      457.87879      55517.297      15721.106      23           
   2054000  -2478.8684      20.076797     -2498.9452      1.360611       216.62602      325.54846      283.06529      280.74325      444.56432      56017.942      15862.876      21           
   2055000  -2478.8442      21.341722     -2500.1859      1.360611       230.2744       328.49222      302.66648      304.22156      444.03882      55576.609      15737.901      22           
   2056000  -2478.4237      21.50493      -2499.9286      1.360611       232.03539      361.93825      301.33712      312.6897       428.52254      55748.858      15786.678      25           
   2057000  -2478.3692      20.267049     -2498.6362      1.360611       218.67882      324.35754      287.01858      287.16404      427.13953      55613.735      15748.415      25           
   2058000  -2478.79        20.123463     -2498.9135      1.360611       217.12955      325.86537      290.16914      278.1141       420.55065      56675.846      16049.178      23           
   2059000  -2478.2821      21.457166     -2499.7393      1.360611       231.52003      412.20837      308.08298      303.29894      381.87979      56049.478      15871.806      25           
   2060000  -2479.1169      20.351595     -2499.4685      1.360611       219.59107      303.0797       295.37047      278.87284      434.47889      56450.03       15985.232      26           
   2061000  -2478.5388      20.885575     -2499.4244      1.360611       225.35264      296.55026      293.98087      314.62279      393.68997      55622.562      15750.914      27           
   2062000  -2479.3918      20.770096     -2500.1619      1.360611       224.10663      313.67037      310.32857      284.70233      385.66549      56055.789      15873.593      29           
   2063000  -2478.4533      21.022235     -2499.4756      1.360611       226.82718      368.89435      302.93971      294.11571      412.74374      56472.33       15991.547      29           
   2064000  -2481.159       19.243939     -2500.4029      1.360611       207.6396       267.74696      274.96575      268.26746      435.07996      55614.203      15748.547      21           
   2065000  -2479.356       19.850058     -2499.2061      1.360611       214.17954      208.86894      270.52063      308.14079      423.86663      55490.477      15713.511      23           
   2066000  -2480.0165      20.677277     -2500.6937      1.360611       223.10512      294.36601      296.68609      284.47585      469.12664      55687.877      15769.41       23           
   2067000  -2479.2918      21.03263      -2500.3244      1.360611       226.93934      334.15608      321.24515      267.83924      421.04132      56183.813      15909.846      25           
   2068000  -2478.5256      21.666704     -2500.1923      1.360611       233.78092      371.5529       311.34281      304.57484      421.70865      56412.926      15974.726      29           
   2069000  -2478.1227      21.199573     -2499.3222      1.360611       228.74063      305.36451      326.25493      279.24879      384.68547      56531.95       16008.43       27           
   2070000  -2479.1143      20.526302     -2499.6406      1.360611       221.47613      268.57053      284.21683      318.77918      374.09572      54783.067      15513.19       22           
   2071000  -2478.5771      20.981603     -2499.5587      1.360611       226.38876      235.6342       312.12473      303.61179      353.67457      55410.319      15690.812      22           
   2072000  -2479.1446      21.566188     -2500.7108      1.360611       232.69636      352.16378      329.65205      291.70694      340.85456      55535.86       15726.362      22           
   2073000  -2480.0794      19.29331      -2499.3727      1.360611       208.1723       325.55355      273.24078      285.33007      332.50485      56830.945      16093.098      21           
   2074000  -2479.8865      20.499811     -2500.3863      1.360611       221.1903       275.28722      290.94308      311.97177      343.5157       54930.327      15554.89       21           
   2075000  -2478.3704      20.831201     -2499.2016      1.360611       224.76594      325.9866       313.44714      284.6166       354.82682      57039.837      16152.251      20           
   2076000  -2476.7962      21.918945     -2498.7151      1.360611       236.50257      358.19327      315.07427      324.32579      354.19146      54959.614      15563.184      19           
   2077000  -2478.7826      21.194287     -2499.9769      1.360611       228.68359      441.72696      305.30882      293.21127      375.70201      56557.98       16015.801      24           
   2078000  -2478.3638      20.929508     -2499.2933      1.360611       225.82667      312.32729      297.84411      303.83429      392.78032      55964.144      15847.642      18           
   2079000  -2477.4171      21.498935     -2498.916       1.360611       231.97071      441.05584      294.48957      323.33985      380.66389      55722.411      15779.189      21           
   2080000  -2477.9123      20.80175      -2498.714       1.360611       224.44817      340.4098       298.49209      302.88918      364.17401      55783.118      15796.38       24           
   2081000  -2477.8345      20.805675     -2498.6402      1.360611       224.49052      279.97775      316.34814      283.1774       363.53893      55006.093      15576.346      21           
   2082000  -2477.8199      21.34156      -2499.1615      1.360611       230.27265      227.28172      309.21524      327.15009      357.4974       57011.371      16144.19       29           
   2083000  -2478.8829      20.825921     -2499.7088      1.360611       224.70898      286.16886      307.84168      297.97723      354.22892      54963.363      15564.245      22           
   2084000  -2479.4251      20.138688     -2499.5638      1.360611       217.29382      256.70379      303.38643      280.78433      355.92453      56115.271      15890.437      25           
   2085000  -2479.4416      21.743403     -2501.185       1.360611       234.60848      305.54029      312.37103      320.30843      383.96789      55839.895      15812.458      21           
   2086000  -2479.2447      21.457038     -2500.7017      1.360611       231.51865      289.9514       290.10435      337.05916      414.9709       55625.823      15751.838      22           
   2087000  -2477.9732      21.61019      -2499.5834      1.360611       233.17114      405.60117      301.12367      323.98061      366.86504      56155.538      15901.839      23           
   2088000  -2479.32        20.412498     -2499.7325      1.360611       220.2482       331.31743      294.13653      297.77768      350.03884      55729.413      15781.172      24           
   2089000  -2480.363       20.198038     -2500.561       1.360611       217.9342       291.17718      299.19473      291.98968      320.23968      57265.187      16216.064      26           
   2090000  -2478.9328      20.186226     -2499.119       1.360611       217.80675      247.81891      305.54963      291.20379      309.12381      54259.537      15364.94       30           
   2091000  -2480.2646      19.861405     -2500.126       1.360611       214.30197      308.81609      285.96351      299.08459      297.94189      56345.934      15955.755      31           
   2092000  -2480.7532      18.776917     -2499.5301      1.360611       202.60049      301.31525      268.10507      283.26455      289.86488      54423.643      15411.41       30           
   2093000  -2479.7508      20.305551     -2500.0563      1.360611       219.09425      317.9701       300.62716      297.78189      282.9232       56963.431      16130.615      26           
   2094000  -2477.0277      21.220135     -2498.2479      1.360611       228.96249      207.63999      330.30292      303.34006      291.47856      54830.317      15526.57       23           
   2095000  -2476.938       21.222423     -2498.1604      1.360611       228.98718      409.35371      313.17848      296.334        328.24958      56947.642      16126.144      26           
   2096000  -2479.0235      20.378549     -2499.402       1.360611       219.88189      321.7124       293.08966      302.814        326.72516      56280.1        15937.113      27           
   2097000  -2480.7735      19.483255     -2500.2568      1.360611       210.22178      297.20445      283.39803      279.78554      342.44501      54867.537      15537.11       20           
   2098000  -2479.2537      19.821829     -2499.0755      1.360611       213.87496      325.58056      294.20859      272.01562      355.00166      56141.287      15897.804      23           
   2099000  -2477.529       21.478231     -2499.0073      1.360611       231.74732      253.17007      319.9775       322.2731       299.79357      55500.454      15716.336      23           
   2100000  -2479.4716      21.419201     -2500.8908      1.360611       231.11039      306.69422      298.97056      344.55555      298.29857      56019.67       15863.365      27           
   2101000  -2480.3841      20.097141     -2500.4812      1.360611       216.84553      254.76713      286.21498      313.85014      302.43817      56599.11       16027.448      21           
   2102000  -2479.0063      19.658294     -2498.6646      1.360611       212.11044      376.90616      294.84152      274.29283      277.25011      56524.641      16006.36       23           
   2103000  -2479.9584      19.959014     -2499.9174      1.360611       215.35516      315.11051      298.78514      280.80299      312.5361       55712.686      15776.435      25           
   2104000  -2478.5678      20.347255     -2498.9151      1.360611       219.54424      312.64913      306.1869       290.23677      291.99912      55664.859      15762.892      28           
   2105000  -2478.5995      21.198682     -2499.7982      1.360611       228.73102      283.62123      320.08284      305.6533       306.17653      56513.803      16003.291      23           
   2106000  -2480.0182      20.512619     -2500.5309      1.360611       221.32849      222.74975      307.37377      297.22151      333.99934      55204.836      15632.625      23           
   2107000  -2479.1067      20.860841     -2499.9676      1.360611       225.08576      320.89255      312.65201      296.42398      316.23061      55946.553      15842.66       19           
   2108000  -2478.1459      20.283873     -2498.4298      1.360611       218.86035      384.10718      277.64555      318.30324      309.636        56718.356      16061.215      22           
   2109000  -2479.5007      20.501952     -2500.0026      1.360611       221.21339      330.40793      302.11619      297.23699      308.04839      56206.64       15916.31       25           
   2110000  -2478.162       21.043229     -2499.2053      1.360611       227.05371      284.32051      304.95716      318.94939      315.09481      55756.414      15788.818      19           
   2111000  -2479.2255      20.568805     -2499.7943      1.360611       221.93473      331.90923      287.47013      321.45958      314.18048      55882.626      15824.558      13           
   2112000  -2479.7689      19.750688     -2499.5196      1.360611       213.10735      322.67535      292.78534      279.56075      318.06049      55318.208      15664.729      13           
   2113000  -2478.6161      20.870885     -2499.487       1.360611       225.19413      507.60588      305.79791      296.26964      299.08482      55597.204      15743.733      16           
   2114000  -2479.5608      19.998308     -2499.5591      1.360611       215.77914      379.28051      282.15376      300.59589      310.08856      56634.701      16037.527      21           
   2115000  -2480.6381      19.796336     -2500.4344      1.360611       213.59989      271.75209      286.93341      298.64878      301.50996      55538.937      15727.234      21           
   2116000  -2479.987       20.083484     -2500.0705      1.360611       216.69818      249.35044      298.3617       296.21557      295.43767      57863.285      16385.431      16           
   2117000  -2479.1629      20.662248     -2499.8251      1.360611       222.94296      374.87384      292.05749      317.30193      288.61512      54407.405      15406.812      24           
   2118000  -2478.2551      21.54931      -2499.8044      1.360611       232.51425      368.45425      309.03924      328.63754      279.65176      57785.405      16363.377      30           
   2119000  -2480.2347      20.085405     -2500.3201      1.360611       216.71891      376.23688      301.84338      278.10155      286.94926      55178.015      15625.029      27           
   2120000  -2481.5068      19.42371      -2500.9305      1.360611       209.57931      314.37795      284.26154      281.41018      306.43698      55546.583      15729.399      28           
   2121000  -2478.8238      21.003428     -2499.8273      1.360611       226.62425      339.10774      318.02449      295.7112       291.53648      55485.005      15711.961      28           
   2122000  -2477.3577      22.581615     -2499.9393      1.360611       243.65268      360.76438      309.40863      364.99207      319.74538      55974.16       15850.478      30           
   2123000  -2479.4222      20.180278     -2499.6025      1.360611       217.74258      233.284        300.07184      296.82766      324.7379       57232.723      16206.871      26           
   2124000  -2477.3852      22.035293     -2499.4205      1.360611       237.75794      278.09927      301.95339      363.87675      324.38883      54457.424      15420.976      23           
   2125000  -2478.4241      20.451096     -2498.8752      1.360611       220.66466      261.27284      305.18304      296.31692      326.29559      56832.302      16093.482      26           
   2126000  -2477.9958      20.057764     -2498.0536      1.360611       216.42067      241.23785      283.71336      315.72896      310.08038      54932.104      15555.394      21           
   2127000  -2477.8463      20.992206     -2498.8385      1.360611       226.50317      348.74249      306.76092      306.96934      317.5732       57893.161      16393.891      22           
   2128000  -2478.3725      20.694973     -2499.0675      1.360611       223.29606      386.15615      314.27239      277.62298      325.59454      54691.13       15487.156      23           
   2129000  -2478.1973      20.141195     -2498.3385      1.360611       217.32087      352.90824      293.9315       279.11414      371.6409       56269.955      15934.24       25           
   2130000  -2480.7953      19.453728     -2500.2491      1.360611       209.90319      289.68666      281.82902      281.49566      341.86771      56044.39       15870.365      19           
   2131000  -2479.9918      20.038983     -2500.0308      1.360611       216.21801      272.51009      271.37683      325.15023      326.48021      55868.592      15820.584      20           
   2132000  -2480.0486      20.072319     -2500.1209      1.360611       216.57771      291.0129       307.36328      268.54965      341.35         56639.719      16038.947      18           
   2133000  -2478.761       20.346611     -2499.1076      1.360611       219.53728      317.02592      277.92667      323.77177      328.36837      55592.921      15742.52       23           
   2134000  -2478.3357      20.869717     -2499.2054      1.360611       225.18153      252.08989      320.06866      287.47472      351.91352      56607.799      16029.909      25           
   2135000  -2480.1537      19.560793     -2499.7145      1.360611       211.05841      488.75493      284.15698      261.44273      322.44505      55760.501      15789.975      26           
   2136000  -2478.7405      21.409311     -2500.1498      1.360611       231.00368      444.17638      319.21542      287.78659      351.67554      56823.397      16090.96       23           
   2137000  -2478.3081      21.186996     -2499.4951      1.360611       228.60493      316.68767      295.29623      329.23681      348.65869      56380.869      15965.648      23           
   2138000  -2478.5289      19.951496     -2498.4804      1.360611       215.27405      334.09698      298.08172      275.59595      334.96656      56605.892      16029.368      20           
   2139000  -2478.9488      19.716697     -2498.6655      1.360611       212.7406       319.51503      290.9038       280.38673      322.20861      56638.983      16038.739      23           
   2140000  -2477.9606      20.048535     -2498.0092      1.360611       216.32108      285.49858      308.23916      281.82621      274.86958      55164.929      15621.324      24           
   2141000  -2478.7291      20.021615     -2498.7508      1.360611       216.03062      337.20913      287.39099      298.49139      308.2816       57539.961      16293.873      25           
   2142000  -2479.586       19.889398     -2499.4754      1.360611       214.60402      370.4756       290.82623      283.19478      309.37889      55717.924      15777.918      26           
   2143000  -2478.5734      21.074787     -2499.6482      1.360611       227.39421      410.19213      295.49169      314.14184      336.97196      56958.432      16129.199      26           
   2144000  -2480.4397      20.230489     -2500.6702      1.360611       218.28435      257.69892      282.9436       313.87361      356.73476      54773.413      15510.456      24           
   2145000  -2478.1863      21.101942     -2499.2883      1.360611       227.68721      268.39611      315.31325      302.11884      347.92653      56775.344      16077.353      24           
   2146000  -2480.4449      19.172071     -2499.617       1.360611       206.86415      279.29759      280.39971      270.99686      354.85426      55473.189      15708.615      23           
   2147000  -2481.1499      19.194152     -2500.3441      1.360611       207.1024       289.0487       281.5569       272.75608      339.86207      56966.136      16131.38       24           
   2148000  -2479.3635      20.430765     -2499.7943      1.360611       220.44529      257.4698       324.98747      264.59093      332.57649      56150.696      15900.468      23           
   2149000  -2477.7076      21.621165     -2499.3288      1.360611       233.28956      270.11419      331.23751      303.51857      327.64993      55655.462      15760.231      22           
   2150000  -2477.7395      20.659197     -2498.3987      1.360611       222.91005      287.30784      317.10523      291.138        290.23382      56198.903      15914.119      28           
   2151000  -2478.8437      20.422251     -2499.2659      1.360611       220.35343      215.83278      287.67967      332.25326      294.18598      56129.425      15894.445      24           
   2152000  -2479.8503      20.850336     -2500.7006      1.360611       224.97242      352.85377      304.71489      304.58336      311.58819      56964.282      16130.856      24           
   2153000  -2480.3283      20.091178     -2500.4195      1.360611       216.78119      270.31704      282.49923      309.04374      341.52698      55376.388      15681.204      20           
   2154000  -2479.4522      19.884514     -2499.3367      1.360611       214.55132      254.04059      281.06251      302.51639      355.18233      56600.538      16027.852      25           
   2155000  -2480.0542      20.711166     -2500.7654      1.360611       223.47079      227.8947       292.16445      321.8624       362.50488      55819.7        15806.739      23           
   2156000  -2480.705       18.751804     -2499.4568      1.360611       202.32953      219.39592      275.1868       267.50503      360.43205      57548.98       16296.427      24           
   2157000  -2480.0731      19.794069     -2499.8671      1.360611       213.57543      237.80985      298.09797      279.32211      333.169        56361.131      15960.058      21           
   2158000  -2479.9909      19.693501     -2499.6844      1.360611       212.49032      304.07582      272.64222      306.52561      327.73608      55884.476      15825.082      18           
   2159000  -2480.0419      20.084135     -2500.1261      1.360611       216.70521      272.17057      299.18083      291.80366      304.90791      56856.677      16100.385      21           
   2160000  -2481.4832      19.25002      -2500.7333      1.360611       207.70521      294.43003      283.56059      285.80752      269.76373      55758.853      15789.508      18           
   2161000  -2480.0123      19.202249     -2499.2146      1.360611       207.18977      259.8097       297.95258      260.74508      296.05435      56869.872      16104.121      22           
   2162000  -2477.3577      21.000204     -2498.3579      1.360611       226.58947      348.74595      317.62269      298.35443      281.28937      57004.868      16142.349      24           
   2163000  -2478.3312      21.135859     -2499.467       1.360611       228.05317      335.60661      295.67939      333.10743      308.17561      56536.911      16009.835      20           
   2164000  -2479.8837      20.248435     -2500.1322      1.360611       218.47797      272.05237      307.15319      279.99313      345.31521      56201.7        15914.911      27           
   2165000  -2478.5406      21.308946     -2499.8496      1.360611       229.92075      256.59188      305.9121       325.25965      351.77792      56482.567      15994.446      23           
   2166000  -2480.8913      20.215383     -2501.1067      1.360611       218.12135      255.87766      292.14763      304.48889      335.64281      56089.028      15883.006      25           
   2167000  -2478.7503      19.91622      -2498.6665      1.360611       214.89342      219.27844      295.87016      298.29644      297.24427      56452.606      15985.962      24           
   2168000  -2479.2371      20.798547     -2500.0357      1.360611       224.41362      303.09424      300.60835      314.00131      315.76546      55545.806      15729.179      28           
   2169000  -2478.5578      19.782885     -2498.3407      1.360611       213.45475      356.33142      293.81896      278.00182      286.24876      56284.159      15938.262      33           
   2170000  -2478.5508      20.907473     -2499.4582      1.360611       225.58892      287.89799      328.93767      282.38497      296.05752      56706.925      16057.979      28           
   2171000  -2481.307       19.877947     -2501.1849      1.360611       214.48046      334.77295      290.715        289.22643      292.93903      55456.219      15703.81       32           
   2172000  -2479.9509      19.814118     -2499.765       1.360611       213.79176      374.63528      278.73378      296.89351      298.96519      56266.564      15933.279      32           
   2173000  -2478.731       21.61304      -2500.344       1.360611       233.20189      298.67277      315.95454      326.05427      313.29086      55530.065      15724.721      29           
   2174000  -2479.9621      20.524007     -2500.4861      1.360611       221.45137      262.40784      305.33667      299.82379      322.64612      58408.429      16539.802      26           
   2175000  -2479.005       20.047009     -2499.052       1.360611       216.30462      339.01521      290.63981      303.22557      259.13983      56231.996      15923.491      26           
   2176000  -2479.7769      19.691402     -2499.4683      1.360611       212.46766      256.22227      287.92764      300.64606      276.12705      56340.945      15954.342      27           
   2177000  -2480.5762      19.775719     -2500.3519      1.360611       213.37744      317.32978      294.67587      292.93163      239.56195      55420.898      15693.808      25           
   2178000  -2479.8325      19.400117     -2499.2326      1.360611       209.32474      231.30429      279.05154      313.73286      229.31888      56089.239      15883.065      25           
   2179000  -2480.6999      18.672922     -2499.3729      1.360611       201.4784       194.29934      282.39916      279.74202      249.14137      55015.708      15579.068      26           
   2180000  -2481.1613      20.147676     -2501.309       1.360611       217.39081      296.05222      306.64335      290.25592      254.49821      56250.669      15928.778      26           
   2181000  -2481.0247      19.142413     -2500.1672      1.360611       206.54415      302.17206      257.83284      318.5072       268.47553      56857.11       16100.507      21           
   2182000  -2480.1543      19.729914     -2499.8842      1.360611       212.8832       362.57548      279.85154      295.57304      309.54653      55764.237      15791.033      20           
   2183000  -2478.3961      20.380643     -2498.7768      1.360611       219.90449      258.41721      297.92362      300.10979      334.16708      56455.823      15986.873      18           
   2184000  -2478.6226      21.40796      -2500.0306      1.360611       230.9891       280.02213      313.8334       314.72124      338.38296      56174.501      15907.209      14           
   2185000  -2479.5564      19.713931     -2499.2704      1.360611       212.71075      199.60425      294.37062      283.02156      323.3841       57346.182      16239          14           
   2186000  -2477.6579      21.151403     -2498.8093      1.360611       228.22089      288.89915      309.57009      313.3806       328.71458      56544.681      16012.035      19           
   2187000  -2479.313       19.445972     -2498.7589      1.360611       209.81951      276.60593      280.57925      289.12298      320.72308      56200.228      15914.495      20           
   2188000  -2479.1701      20.542221     -2499.7123      1.360611       221.64789      307.2313       289.85709      312.60688      348.007        56152.518      15900.984      26           
   2189000  -2480.3326      19.506046     -2499.8387      1.360611       210.46769      241.64626      291.7063       282.57577      316.78784      56123.716      15892.828      28           
   2190000  -2478.7088      21.04621      -2499.755       1.360611       227.08587      323.46134      307.98882      306.90361      337.32711      55786.084      15797.22       32           
   2191000  -2478.6937      20.535399     -2499.2291      1.360611       221.57428      218.93158      301.06225      302.53143      379.70217      55507.649      15718.374      28           
   2192000  -2479.2493      20.583344     -2499.8327      1.360611       222.0916       274.0767       295.60123      311.67663      337.87695      56536.651      16009.761      24           
   2193000  -2479.5535      19.693371     -2499.2469      1.360611       212.48891      375.83333      276.45007      288.0081       342.00273      55370.477      15679.53       30           
   2194000  -2480.391       20.907122     -2501.2981      1.360611       225.58512      384.19766      293.88999      310.01662      337.32844      55949.62       15843.529      36           
   2195000  -2480.2294      20.544755     -2500.7742      1.360611       221.67524      334.37082      308.03156      286.8026       319.06902      55331.209      15668.41       35           
   2196000  -2479.4889      20.408065     -2499.897       1.360611       220.20037      310.20368      284.22442      328.47664      269.42021      55959.245      15846.254      32           
   2197000  -2480.1068      20.294471     -2500.4013      1.360611       218.9747       291.41754      313.32382      287.5956       252.31626      56735.729      16066.135      33           
   2198000  -2481.1071      19.385125     -2500.4923      1.360611       209.16297      251.14907      277.2919       313.69571      220.6752       55445.837      15700.87       32           
   2199000  -2479.8251      19.40295      -2499.2281      1.360611       209.3553       279.40453      283.03995      294.85144      264.07153      55900.249      15829.548      29           
   2200000  -2479.7636      19.844133     -2499.6078      1.360611       214.11561      324.89934      307.28242      268.94445      274.84324      55611.643      15747.822      28           
   2201000  -2479.3078      21.95502      -2501.2628      1.360611       236.8918       304.10386      330.36008      320.91071      296.24499      55818.841      15806.495      31           
   2202000  -2479.3754      20.306683     -2499.6821      1.360611       219.10646      266.39138      322.23881      275.31797      272.87945      56241.476      15926.175      31           
   2203000  -2480.0464      20.294063     -2500.3405      1.360611       218.9703       253.32162      303.59134      307.42226      249.2614       54515.725      15437.486      26           
   2204000  -2479.8976      19.498875     -2499.3964      1.360611       210.39033      222.0968       281.65447      316.56306      225.36231      55414.739      15692.064      29           
   2205000  -2480.6169      19.896139     -2500.5131      1.360611       214.67674      325.19956      306.57972      287.90959      179.66979      55696.784      15771.932      30           
   2206000  -2480.2738      19.388029     -2499.6618      1.360611       209.19431      285.58098      285.49514      299.87055      198.89948      55733.868      15782.433      32           
   2207000  -2480.0438      19.5422       -2499.586       1.360611       210.85779      323.30237      295.20628      281.12427      236.49313      55749.716      15786.921      29           
   2208000  -2480.6902      18.715755     -2499.4059      1.360611       201.94056      219.03226      284.27829      277.14191      248.36815      55595.211      15743.169      30           
   2209000  -2479.9309      20.412671     -2500.3435      1.360611       220.25007      253.4904       304.82907      308.61905      264.56903      56238.738      15925.4        31           
   2210000  -2480.7876      19.355709     -2500.1433      1.360611       208.84558      285.10978      280.1197       295.03502      270.48763      55911.594      15832.761      32           
   2211000  -2481.5407      19.26149      -2500.8022      1.360611       207.82897      275.00716      284.77628      281.57165      295.43193      56736.27       16066.288      27           
   2212000  -2479.4095      20.302987     -2499.7125      1.360611       219.06659      251.11732      309.25865      294.664        277.90781      55329.37       15667.889      27           
   2213000  -2480.3443      18.734435     -2499.0788      1.360611       202.14212      187.00221      294.1731       262.92961      269.32727      55822.326      15807.482      27           
   2214000  -2478.4618      21.117753     -2499.5795      1.360611       227.85781      304.12171      305.15826      326.74887      279.00634      55847.491      15814.609      30           
   2215000  -2478.413       19.930317     -2498.3434      1.360611       215.04553      320.11889      289.2348       302.49221      264.39491      57121.728      16175.44       25           
   2216000  -2479.9604      20.766256     -2500.7267      1.360611       224.0652       341.61553      307.89799      302.29667      280.12655      55594.538      15742.978      30           
   2217000  -2480.086       19.980375     -2500.0663      1.360611       215.58565      326.70173      305.61898      273.76409      292.83993      56029.068      15866.026      27           
   2218000  -2479.9999      19.622079     -2499.6219      1.360611       211.71968      165.6508       282.91261      305.64061      321.4264       55322.702      15666.001      22           
   2219000  -2478.6602      20.395153     -2499.0554      1.360611       220.06104      343.36931      290.44037      314.20627      279.80756      56461.304      15988.425      24           
   2220000  -2480.1446      20.493048     -2500.6377      1.360611       221.11732      313.24254      305.51071      299.7976       277.76108      57260.611      16214.768      26           
   2221000  -2480.7739      19.567191     -2500.3411      1.360611       211.12744      277.17932      300.52379      270.5057       295.16417      56083.22       15881.361      25           
   2222000  -2480.3666      19.912329     -2500.2789      1.360611       214.85144      270.01384      294.44143      295.42937      291.34687      56916.914      16117.442      26           
   2223000  -2479.2521      20.93415      -2500.1862      1.360611       225.87676      289.52344      326.03985      286.96828      303.35251      54822.894      15524.468      33           
   2224000  -2480.3101      19.282854     -2499.5929      1.360611       208.05949      357.649        275.09088      289.4894       272.13659      56918.695      16117.946      27           
   2225000  -2478.7355      20.265945     -2499.0015      1.360611       218.66691      323.34043      287.76515      315.22858      282.6968       54975.656      15567.727      22           
   2226000  -2478.8952      20.285301     -2499.1805      1.360611       218.87576      374.29973      288.36446      301.48575      321.46365      57384.254      16249.781      21           
   2227000  -2478.6833      20.71959      -2499.4028      1.360611       223.56168      402.29103      293.01571      305.6885       333.13519      55563.114      15734.08       24           
   2228000  -2479.4779      19.938129     -2499.4161      1.360611       215.12982      283.39174      291.78586      291.90544      323.13698      55055.216      15590.256      23           
   2229000  -2478.5604      20.707188     -2499.2676      1.360611       223.42786      256.00403      299.46284      317.60341      316.01341      56032.072      15866.877      25           
   2230000  -2479.7689      19.516951     -2499.2858      1.360611       210.58536      319.38398      279.57453      290.28058      314.55764      56194.891      15912.983      22           
   2231000  -2478.2052      21.449305     -2499.6545      1.360611       231.43521      303.48167      326.43399      304.66802      304.96205      56507.705      16001.564      26           
   2232000  -2479.3805      20.421631     -2499.8021      1.360611       220.34675      259.87047      299.33587      306.72063      310.50467      55003.805      15575.698      26           
   2233000  -2478.9649      20.439945     -2499.4048      1.360611       220.54434      354.71714      288.78163      312.51772      305.18628      57883.134      16391.052      23           
   2234000  -2479.8438      19.837952     -2499.6818      1.360611       214.04892      342.70541      286.16796      286.33859      335.6778       55409.666      15690.627      27           
   2235000  -2479.4031      20.328748     -2499.7318      1.360611       219.34454      330.19886      308.44693      276.37295      330.62675      56365.676      15961.345      24           
   2236000  -2480.9243      19.984095     -2500.9084      1.360611       215.62579      358.36684      280.46981      298.67779      339.97826      55963.917      15847.577      24           
   2237000  -2479.8344      20.544009     -2500.3784      1.360611       221.66718      258.8902       317.20769      282.80686      328.20596      55589.349      15741.509      27           
   2238000  -2480.2115      20.315445     -2500.527       1.360611       219.201        226.29173      296.89988      304.77086      331.98488      55480.181      15710.595      23           
   2239000  -2481.1053      19.728087     -2500.8334      1.360611       212.86349      283.45588      298.69045      269.72211      344.17796      55251.913      15645.956      26           
   2240000  -2478.2649      21.309857     -2499.5748      1.360611       229.93059      373.96442      317.70295      299.22273      325.66899      57627.61       16318.693      23           
   2241000  -2479.0626      20.91711      -2499.9798      1.360611       225.69289      351.15682      290.61243      332.32289      295.43739      54912.088      15549.726      21           
   2242000  -2478.4128      20.644339     -2499.0571      1.360611       222.74973      227.62022      315.5193       298.36698      285.16911      56901.074      16112.957      17           
   2243000  -2479.9778      19.644492     -2499.6223      1.360611       211.96152      333.53449      283.14428      289.68052      312.88988      55402.371      15688.562      19           
   2244000  -2478.257       20.74564      -2499.0026      1.360611       223.84276      267.0766       291.43615      333.55034      293.51811      56595.898      16026.538      22           
   2245000  -2479.6928      20.521634     -2500.2145      1.360611       221.42576      341.15373      310.68648      290.07261      266.39875      55923.664      15836.179      32           
   2246000  -2480.8697      19.576859     -2500.4465      1.360611       211.23176      430.37591      299.2353       252.04292      282.77047      55497.65       15715.542      30           
   2247000  -2480.7273      19.43297      -2500.1603      1.360611       209.67921      195.9871       297.83979      280.24849      283.69777      56017.42       15862.728      22           
   2248000  -2479.1883      20.141835     -2499.3301      1.360611       217.32778      206.69506      303.12549      300.7661       284.32964      55493.142      15714.266      23           
   2249000  -2479.4808      20.476637     -2499.9575      1.360611       220.94025      313.9151       303.24618      303.17656      276.6221       56402.404      15971.746      23           
   2250000  -2480.4838      19.844809     -2500.3286      1.360611       214.12291      280.56418      283.95563      310.83965      269.62684      54971.825      15566.642      23           
   2251000  -2481.0358      19.379955     -2500.4158      1.360611       209.1072       288.59968      276.68337      303.31217      260.2185       58040.835      16435.709      24           
   2252000  -2479.7599      20.519759     -2500.2796      1.360611       221.40553      305.98326      319.75908      282.36642      268.64848      54348.311      15390.078      27           
   2253000  -2479.6943      20.624728     -2500.319       1.360611       222.53813      298.31398      300.78168      314.46751      278.36822      57179.339      16191.754      21           
   2254000  -2478.553       21.178584     -2499.7316      1.360611       228.51416      311.69161      314.68786      314.07314      283.81944      54997.606      15573.942      27           
   2255000  -2478.4945      20.421125     -2498.9157      1.360611       220.34128      276.89723      315.1881       290.6526       262.66987      56654.572      16043.153      24           
   2256000  -2480.4017      20.097874     -2500.4995      1.360611       216.85345      343.75841      281.22948      310.36848      301.63399      55821.484      15807.244      27           
   2257000  -2480.6561      19.856508     -2500.5126      1.360611       214.24914      337.84583      277.99923      298.91678      340.17631      55229.177      15639.517      26           
   2258000  -2479.172       21.028437     -2500.2005      1.360611       226.8941       260.58219      298.52094      319.1345       377.33042      57257.984      16214.025      25           
   2259000  -2479.551       20.304933     -2499.8559      1.360611       219.08758      239.48942      316.93226      268.14204      355.27131      55342.143      15671.507      22           
   2260000  -2478.2591      21.510625     -2499.7697      1.360611       232.09684      259.49395      319.60696      321.80014      313.04702      56906.921      16114.612      27           
   2261000  -2479.5127      20.324462     -2499.8372      1.360611       219.2983       228.15655      304.01281      300.64676      304.22005      55275.616      15652.668      24           
   2262000  -2480.2165      20.097776     -2500.3143      1.360611       216.85239      331.52877      304.63549      278.29331      298.40607      57207.024      16199.594      28           
   2263000  -2479.4158      20.36655      -2499.7824      1.360611       219.75243      337.73175      292.7949       307.19583      289.25259      55370.718      15679.598      29           
   2264000  -2478.8309      20.552411     -2499.3833      1.360611       221.75784      275.48152      310.05221      295.39925      308.45497      56497.73       15998.74       29           
   2265000  -2480.4386      19.596176     -2500.0348      1.360611       211.44019      328.3033       294.77444      275.72526      283.35935      55471.691      15708.191      26           
   2266000  -2480.1731      20.259117     -2500.4322      1.360611       218.59324      283.99035      281.23877      328.34936      285.60065      55951.847      15844.159      27           
   2267000  -2478.7426      20.595949     -2499.3386      1.360611       222.22761      317.73397      300.04107      311.57987      273.50794      55875.152      15822.441      29           
   2268000  -2478.7591      21.265879     -2500.025       1.360611       229.45607      336.87364      307.61558      327.71978      254.67724      56118.524      15891.358      33           
   2269000  -2478.9374      21.197564     -2500.135       1.360611       228.71896      296.42788      318.63687      315.20931      259.25692      56536.18       16009.628      24           
   2270000  -2476.9608      21.756993     -2498.7178      1.360611       234.75513      323.57571      315.32571      329.96067      310.91264      55342.195      15671.521      24           
   2271000  -2478.3102      20.69109      -2499.0013      1.360611       223.25417      274.41233      308.2175       306.94874      289.0204       57140.355      16180.715      25           
   2272000  -2479.891       19.968484     -2499.8595      1.360611       215.45735      318.94778      295.27722      292.47728      272.00783      54716.379      15494.306      31           
   2273000  -2479.5068      20.151832     -2499.6586      1.360611       217.43564      318.41505      308.01464      276.77723      301.19915      57653.078      16325.905      29           
   2274000  -2478.384       21.705143     -2500.0891      1.360611       234.19567      333.9741       329.56626      305.0607       312.21937      55746.574      15786.031      26           
   2275000  -2479.3613      20.969806     -2500.3311      1.360611       226.26148      326.68159      310.22197      306.31283      300.21934      55909.195      15832.081      27           
   2276000  -2480.064       20.529245     -2500.5933      1.360611       221.50789      269.7103       294.8843       315.07958      325.05322      55211.198      15634.426      31           
   2277000  -2477.955       21.65671      -2499.6117      1.360611       233.67309      284.71186      326.55495      321.80234      272.16111      55787.67       15797.669      26           
   2278000  -2479.9279      20.103368     -2500.0313      1.360611       216.91272      293.64776      301.1537       299.1184       246.45108      55737.153      15783.364      24           
   2279000  -2479.7913      19.464443     -2499.2558      1.360611       210.0188       381.14924      279.06152      299.21362      195.5317       55486.046      15712.256      30           
   2280000  -2478.6437      20.156185     -2498.7999      1.360611       217.48262      307.95149      300.35899      298.51815      253.38352      55958.642      15846.084      26           
   2281000  -2478.7336      20.697803     -2499.4314      1.360611       223.3266       239.10386      306.87222      320.58399      255.48425      55271.793      15651.585      27           
   2282000  -2480.5972      18.897745     -2499.4949      1.360611       203.90421      227.64599      295.69972      262.85015      264.33067      56238.667      15925.38       27           
   2283000  -2479.427       20.085526     -2499.5125      1.360611       216.72022      265.1075       306.04354      293.4872       250.5748       56858.091      16100.785      25           
   2284000  -2479.8953      19.830734     -2499.7261      1.360611       213.97104      220.4653       318.69222      272.00291      243.95089      55305.239      15661.056      28           
   2285000  -2480.8591      19.303781     -2500.1629      1.360611       208.28529      234.93031      281.40968      304.51909      238.1854       54885.053      15542.07       34           
   2286000  -2480.0528      20.381168     -2500.434       1.360611       219.91015      224.12172      326.53203      282.82784      244.36408      54976.269      15567.9        31           
   2287000  -2480.5805      18.949501     -2499.53        1.360611       204.46265      322.36939      266.46247      299.54991      236.3741       56322.635      15949.157      28           
   2288000  -2480.5875      19.453141     -2500.0406      1.360611       209.89686      242.03091      283.9233       301.80202      259.34449      55219.159      15636.681      27           
   2289000  -2480.1413      20.431715     -2500.573       1.360611       220.45555      265.24466      313.51116      301.30836      231.34075      56547.764      16012.908      24           
   2290000  -2480.1535      19.841476     -2499.995       1.360611       214.08695      306.77392      318.69778      263.5266       232.71166      55399.089      15687.632      23           
   2291000  -2478.1268      21.141246     -2499.2681      1.360611       228.1113       327.45743      316.06851      317.87175      231.99406      56805.566      16085.911      28           
   2292000  -2480.208       20.5166       -2500.7246      1.360611       221.37144      366.13708      299.80125      309.28849      241.06984      56002.115      15858.394      26           
   2293000  -2480.1029      20.120615     -2500.2235      1.360611       217.09882      283.03794      298.99164      307.83327      230.41135      56880.275      16107.067      24           
   2294000  -2480.5596      20.560972     -2501.1206      1.360611       221.85021      268.4059       298.01379      325.6701       241.20715      57001.047      16141.267      29           
   2295000  -2479.2471      19.874952     -2499.1221      1.360611       214.44815      264.27397      298.43056      296.14297      251.02364      55250.655      15645.599      28           
   2296000  -2479.7405      19.819735     -2499.5602      1.360611       213.85236      268.48735      301.90405      286.99524      260.12038      55402.263      15688.531      33           
   2297000  -2480.0682      19.913086     -2499.9813      1.360611       214.85961      329.46586      304.31587      277.34375      262.03598      55873.282      15821.912      31           
   2298000  -2481.2616      18.752902     -2500.0145      1.360611       202.34137      346.30593      276.51962      272.05359      243.9867       56219.497      15919.951      28           
   2299000  -2479.0746      21.189646     -2500.2643      1.360611       228.63352      360.7456       318.35241      305.30675      263.81073      56008.302      15860.146      27           
   2300000  -2479.634       20.667859     -2500.3018      1.360611       223.00351      333.47611      302.5805       303.7889       298.97746      56434.862      15980.937      31           
   2301000  -2479.5281      20.401487     -2499.9296      1.360611       220.12939      322.88455      297.60391      308.24676      262.66671      55050.169      15588.827      29           
   2302000  -2480.9183      19.762243     -2500.6806      1.360611       213.23203      313.31626      289.60974      293.99504      271.47179      56901.297      16113.02       27           
   2303000  -2479.2356      20.401963     -2499.6376      1.360611       220.13453      380.34576      300.19018      293.51045      264.4376       56594.504      16026.144      33           
   2304000  -2480.3153      20.468125     -2500.7834      1.360611       220.84841      325.9338       310.33239      291.83831      260.27591      56422.382      15977.403      30           
   2305000  -2479.2584      20.88473      -2500.1431      1.360611       225.34352      292.67462      305.07304      322.00492      261.42223      56882.579      16107.719      28           
   2306000  -2478.7021      21.535436     -2500.2375      1.360611       232.36455      301.71634      325.81716      318.18863      251.95035      55316.214      15664.164      28           
   2307000  -2479.4559      20.271124     -2499.727       1.360611       218.72279      307.03995      310.68103      284.46582      271.86968      56653.454      16042.837      32           
   2308000  -2479.0589      21.362271     -2500.4212      1.360611       230.49612      308.34494      330.91716      298.38594      278.85959      55393.2        15685.964      29           
   2309000  -2479.1773      20.458412     -2499.6357      1.360611       220.7436       276.63252      303.04783      305.85304      283.57859      54913.609      15550.156      25           
   2310000  -2480.0639      20.250299     -2500.3142      1.360611       218.49809      271.62864      305.82308      293.98968      281.96259      55360.098      15676.591      24           
   2311000  -2479.7429      20.230977     -2499.9738      1.360611       218.28961      353.87343      295.6903       294.77753      292.27086      56287.885      15939.317      28           
   2312000  -2478.2163      19.765718     -2497.9821      1.360611       213.26953      255.86748      300.99542      280.01702      298.85498      55806.647      15803.042      25           
   2313000  -2479.0683      20.223232     -2499.2916      1.360611       218.20604      377.7837       293.0826       300.98967      275.1909       55202.061      15631.839      22           
   2314000  -2478.3173      19.582687     -2497.9         1.360611       211.29464      353.22928      287.57045      286.55318      274.58273      56251.423      15928.992      20           
   2315000  -2479.0459      20.64019      -2499.6861      1.360611       222.70497      294.32901      316.24833      288.19112      299.75612      55708.829      15775.343      20           
   2316000  -2480.1372      19.71722      -2499.8544      1.360611       212.74623      277.16656      291.18408      283.58776      328.12886      56722.85       16062.488      23           
   2317000  -2480.1295      20.310076     -2500.4396      1.360611       219.14307      347.28406      301.98833      286.70467      308.81347      55748.264      15786.51       28           
   2318000  -2481.5761      19.996037     -2501.5722      1.360611       215.75464      284.42188      301.3708       279.95708      327.76964      54900.484      15546.44       29           
   2319000  -2479.1205      20.543696     -2499.6642      1.360611       221.66381      355.68556      293.62074      306.48108      317.26293      56505.459      16000.928      25           
   2320000  -2481.3759      19.492081     -2500.868       1.360611       210.31701      243.11761      280.72142      295.68469      313.71974      56862.007      16101.894      20           
   2321000  -2481.1639      19.800219     -2500.9641      1.360611       213.64179      327.91851      300.6755       271.96294      304.4851       56261.966      15931.977      22           
   2322000  -2479.1102      20.664517     -2499.7748      1.360611       222.96745      316.37743      311.36128      294.2325       299.30775      56275.349      15935.767      22           
   2323000  -2479.0594      20.282109     -2499.3415      1.360611       218.84132      295.9751       292.99207      311.47785      280.67989      56503.351      16000.332      24           
   2324000  -2478.3075      20.868314     -2499.1758      1.360611       225.16639      301.78066      318.48883      297.1261       281.33152      56146.334      15899.233      21           
   2325000  -2480.6585      19.335101     -2499.9936      1.360611       208.62323      344.43431      271.23118      296.19051      295.11394      56233.505      15923.918      23           
   2326000  -2478.9085      19.830316     -2498.7389      1.360611       213.96652      267.14546      286.31096      301.52824      305.21935      55481.306      15710.914      24           
   2327000  -2479.9343      20.028097     -2499.9624      1.360611       216.10056      314.45281      293.6622       290.30747      317.77977      55156.874      15619.043      29           
   2328000  -2481.4523      19.640032     -2501.0923      1.360611       211.91339      373.91362      286.95941      284.28368      281.46737      55782.917      15796.323      24           
   2329000  -2479.23        19.819316     -2499.0493      1.360611       213.84784      294.1463       297.84154      288.15737      267.23915      56125.24       15893.26       24           
   2330000  -2477.0016      21.602611     -2498.6042      1.360611       233.08936      210.77123      322.97554      337.18334      250.5581       56692.048      16053.766      22           
   2331000  -2480.2317      19.665289     -2499.897       1.360611       212.18591      386.47023      284.36505      293.62659      241.77235      56979.05       16135.038      26           
   2332000  -2479.8277      20.153231     -2499.981       1.360611       217.45074      297.08083      306.26538      290.32606      253.89807      56840.594      16095.83       29           
   2333000  -2479.2057      20.552858     -2499.7586      1.360611       221.76266      319.6936       313.1262       298.02378      242.26696      56545.056      16012.141      23           
   2334000  -2478.3161      21.083655     -2499.3998      1.360611       227.48989      319.78659      317.96612      308.51983      259.86702      56416.467      15975.728      26           
   2335000  -2479.9328      21.043977     -2500.9768      1.360611       227.06177      243.84053      319.1398       313.47957      266.4614       55998.711      15857.43       24           
   2336000  -2481.1606      20.307214     -2501.4679      1.360611       219.1122       269.0645       310.47566      294.14899      259.55925      55924.288      15836.355      25           
   2337000  -2480.6933      19.935161     -2500.6285      1.360611       215.09779      387.93514      290.60011      294.95906      258.08032      55033.984      15584.244      23           
   2338000  -2479.7043      19.383824     -2499.0881      1.360611       209.14893      372.12922      291.8799       278.16246      232.82167      56237.88       15925.157      21           
   2339000  -2480.5347      19.67662      -2500.2113      1.360611       212.30817      317.41748      286.9452       300.6196       245.88103      56115.915      15890.619      21           
   2340000  -2479.71        19.947404     -2499.6574      1.360611       215.22989      252.30606      303.62066      286.68326      281.30034      55880.368      15823.918      21           
   2341000  -2481.0684      19.323646     -2500.3921      1.360611       208.49963      280.21986      290.44841      277.11288      283.63054      55365.688      15678.174      21           
   2342000  -2478.9677      21.216519     -2500.1843      1.360611       228.92348      218.28133      312.98665      327.21543      285.60168      56767.876      16075.238      19           
   2343000  -2478.1023      21.668705     -2499.771       1.360611       233.80251      285.32315      333.41152      305.29996      302.40739      55258.084      15647.703      18           
   2344000  -2479.5759      21.017454     -2500.5934      1.360611       226.77559      259.55603      305.51499      322.59917      302.03087      57426.905      16261.859      20           
   2345000  -2479.4989      20.152687     -2499.6516      1.360611       217.44487      245.99053      287.1176       314.46293      305.91257      56067.553      15876.924      19           
   2346000  -2479.3759      20.06154      -2499.4374      1.360611       216.46141      215.47731      274.8027       332.5661       307.74585      57143.299      16181.549      22           
   2347000  -2481.5907      18.121422     -2499.7121      1.360611       195.52779      310.4588       269.07375      252.75188      299.64165      55636.928      15754.982      19           
   2348000  -2479.5464      20.603577     -2500.15        1.360611       222.30991      369.22801      294.21555      310.19745      301.53593      56189.665      15911.503      23           
   2349000  -2480.6785      19.394643     -2500.0732      1.360611       209.26568      330.52635      278.66231      286.25324      305.61273      56141.866      15897.968      27           
   2350000  -2480.6818      19.611938     -2500.2937      1.360611       211.61026      292.4184       280.91893      297.21687      305.97769      55562.678      15733.957      25           
   2351000  -2478.6942      20.779873     -2499.4741      1.360611       224.21213      357.13501      299.37748      305.974        326.06059      57020.944      16146.901      25           
   2352000  -2478.2663      20.931573     -2499.1979      1.360611       225.84895      311.40306      296.2232       322.17412      327.90184      54610.289      15464.264      23           
   2353000  -2479.1364      20.12102      -2499.2574      1.360611       217.10319      312.4552       264.65032      335.50994      327.6457       56335.094      15952.685      26           
   2354000  -2480.0933      19.9169       -2500.0102      1.360611       214.90076      280.37178      283.54406      307.61595      306.5837       55462.146      15705.488      28           
   2355000  -2481.8701      19.166665     -2501.0367      1.360611       206.80582      303.26873      278.64386      284.98888      285.41054      56043.637      15870.152      23           
   2356000  -2480.3986      20.273578     -2500.6722      1.360611       218.74927      345.77922      298.89204      295.37002      288.42935      56201.655      15914.899      22           
   2357000  -2478.7517      21.197983     -2499.9497      1.360611       228.72348      279.23613      303.89323      328.31478      316.42957      56042.584      15869.854      25           
   2358000  -2478.2475      21.243339     -2499.4908      1.360611       229.21286      214.61844      331.56152      294.17886      331.38455      56382.011      15965.971      24           
   2359000  -2479.6489      20.095305     -2499.7442      1.360611       216.82573      267.4184       305.56571      276.02546      346.40765      54609.689      15464.094      25           
   2360000  -2478.9716      21.37479      -2500.3464      1.360611       230.6312       307.22629      332.13744      283.9303       344.0841       56714.221      16060.045      19           
   2361000  -2479.499       21.301351     -2500.8003      1.360611       229.83881      405.23733      318.65298      294.30749      329.2252       55820.526      15806.973      20           
   2362000  -2480.2551      20.383241     -2500.6384      1.360611       219.93252      313.59649      316.90243      269.99101      322.42659      57316.837      16230.69       23           
   2363000  -2477.8119      20.416964     -2498.2288      1.360611       220.29638      368.2823       294.41589      304.65422      291.99921      55762.057      15790.416      22           
   2364000  -2477.1117      21.85265      -2498.9644      1.360611       235.78725      323.84113      336.71217      308.82677      280.25873      56831.31       16093.201      22           
   2365000  -2478.5045      20.115217     -2498.6197      1.360611       217.04058      254.44865      313.52795      269.29199      329.73366      55841.105      15812.8        23           
   2366000  -2478.5316      20.361262     -2498.8929      1.360611       219.69537      253.23663      315.75979      282.01985      314.67898      55918.564      15834.734      31           
   2367000  -2481.1981      19.40577      -2500.6038      1.360611       209.38573      240.10663      291.39051      282.8041       297.63245      56054.231      15873.152      29           
   2368000  -2479.2682      19.754193     -2499.0224      1.360611       213.14517      273.74493      279.72909      311.60373      285.46618      55371.483      15679.815      33           
   2369000  -2480.1716      19.703789     -2499.8754      1.360611       212.60132      263.92539      288.11995      301.84352      264.50239      56981.94       16135.856      26           
   2370000  -2479.4133      20.36528      -2499.7786      1.360611       219.73872      267.3744       306.63635      300.38728      269.36974      54833.192      15527.384      30           
   2371000  -2480.8258      20.328737     -2501.1545      1.360611       219.34442      286.70607      311.69346      289.76715      261.78401      57930.784      16404.545      33           
   2372000  -2479.542       20.386914     -2499.9289      1.360611       219.97215      223.43225      309.20636      301.83756      290.24045      55496.899      15715.33       32           
   2373000  -2479.2842      19.809286     -2499.0935      1.360611       213.73962      250.91267      310.0447       274.83988      277.20687      56805.586      16085.917      34           
   2374000  -2480.4512      20.381751     -2500.8329      1.360611       219.91644      286.85853      312.0055       285.48513      298.47883      55711.234      15776.024      29           
   2375000  -2480.6081      19.91629      -2500.5244      1.360611       214.89418      316.05908      293.92919      296.33706      257.46959      55551.718      15730.853      26           
   2376000  -2479.9902      19.903234     -2499.8934      1.360611       214.75331      313.47952      276.4956       318.60326      274.83196      56747.468      16069.459      27           
   2377000  -2480.8376      19.799581     -2500.6371      1.360611       213.63491      312.38227      296.60068      286.3685       269.30283      55033.195      15584.02       26           
   2378000  -2481.8071      19.026476     -2500.8335      1.360611       205.2932       248.74438      257.61862      318.32108      277.55092      57105.913      16170.962      24           
   2379000  -2482.0493      20.128606     -2502.1779      1.360611       217.18504      358.37972      290.41088      298.49092      285.66191      54310.213      15379.29       29           
   2380000  -2479.2299      20.757775     -2499.9877      1.360611       223.97369      334.83803      310.77178      294.68165      304.63001      56514.773      16003.566      29           
   2381000  -2480.027       19.891204     -2499.9182      1.360611       214.6235       290.32815      298.13644      289.21302      279.04211      53916.384      15267.767      26           
   2382000  -2478.5917      20.928101     -2499.5198      1.360611       225.81149      291.06001      317.10314      304.91974      274.62119      56430.447      15979.687      25           
   2383000  -2478.9449      20.900388     -2499.8453      1.360611       225.51246      224.37986      304.51901      327.15888      289.69053      55389.933      15685.039      24           
   2384000  -2479.3378      20.39761      -2499.7354      1.360611       220.08755      337.27996      308.36616      287.48474      287.11568      55497.402      15715.472      24           
   2385000  -2479.2426      20.257802     -2499.5004      1.360611       218.57904      232.19333      298.36731      308.8362       283.84592      56574.547      16020.492      21           
   2386000  -2479.6466      19.342731     -2498.9893      1.360611       208.70555      269.83881      283.70165      288.89426      284.03726      54736.007      15499.864      22           
   2387000  -2480.1534      19.907981     -2500.0613      1.360611       214.80452      262.61808      287.43118      308.28946      281.18946      57203.303      16198.54       24           
   2388000  -2478.6182      20.446146     -2499.0643      1.360611       220.61125      275.84248      311.49656      293.62256      279.79056      55249.182      15645.182      25           
   2389000  -2476.9236      22.72691      -2499.6505      1.360611       245.2204       295.62138      349.59915      328.62593      279.70591      57343.054      16238.114      23           
   2390000  -2479.4745      20.535955     -2500.0104      1.360611       221.58029      287.93937      306.55482      298.83587      303.56042      55735.011      15782.757      29           
   2391000  -2481.1802      19.437655     -2500.6179      1.360611       209.72977      346.00928      287.09767      274.11222      306.99674      56005.451      15859.339      24           
   2392000  -2479.6895      20.256887     -2499.9464      1.360611       218.56918      336.87661      285.21793      311.06473      312.27581      56071.106      15877.931      21           
   2393000  -2478.8995      21.00874      -2499.9083      1.360611       226.68157      292.40283      304.73359      318.31569      312.39253      54490.975      15430.477      24           
   2394000  -2479.9741      19.071126     -2499.0452      1.360611       205.77497      310.20948      283.79904      269.31533      297.44666      56355.494      15958.462      32           
   2395000  -2479.5662      19.333597     -2498.8998      1.360611       208.60699      253.37593      284.21005      286.791        309.04572      54441.69       15416.521      30           
   2396000  -2479.75        20.48303      -2500.2331      1.360611       221.00923      343.7439       288.07869      316.25023      298.4709       57457.41       16270.497      30           
   2397000  -2479.8953      20.612161     -2500.5075      1.360611       222.40253      284.34111      296.95982      317.2822       300.72325      55590.336      15741.789      31           
   2398000  -2480.0725      19.985825     -2500.0583      1.360611       215.64445      276.99804      297.40654      289.82087      310.21135      57241.66       16209.402      27           
   2399000  -2480.7298      21.420458     -2502.1503      1.360611       231.12395      367.82472      312.56704      315.04518      295.13807      55387.021      15684.215      31           
   2400000  -2481.4082      18.895198     -2500.3034      1.360611       203.87672      266.89315      265.64509      298.46122      281.59232      57928.297      16403.84       30           
   2401000  -2480.4235      19.816925     -2500.2404      1.360611       213.82204      261.04535      299.77016      290.50211      264.37254      55970.581      15849.464      30           
   2402000  -2478.7975      21.290529     -2500.088       1.360611       229.72203      233.99545      316.8875       327.8018       276.16064      55603.665      15745.563      30           
   2403000  -2478.8502      20.627195     -2499.4774      1.360611       222.56475      251.80029      318.36816      296.16717      271.2681       56928.879      16120.83       30           
   2404000  -2478.9069      20.942308     -2499.8492      1.360611       225.96478      239.45038      305.70509      319.26933      333.6077       54819.436      15523.489      30           
   2405000  -2480.5408      20.056014     -2500.5968      1.360611       216.40178      304.67604      300.14786      277.6572       347.42614      56501.3        15999.751      25           
   2406000  -2479.3345      20.540377     -2499.8749      1.360611       221.62799      250.23925      304.19184      301.44258      328.14899      55264.455      15649.507      23           
   2407000  -2479.4696      20.956136     -2500.4258      1.360611       226.11398      251.51694      305.94163      316.22516      340.33599      56799.17       16084.1        31           
   2408000  -2479.2172      20.454492     -2499.6717      1.360611       220.70131      225.67522      308.37071      294.10702      345.50497      55384.358      15683.461      28           
   2409000  -2480.2739      20.791231     -2501.0651      1.360611       224.33468      232.51971      319.19647      291.32583      346.73895      57219.851      16203.226      29           
   2410000  -2479.4455      20.344217     -2499.7897      1.360611       219.51146      200.68263      306.23474      296.63804      341.53813      55432.898      15697.206      27           
   2411000  -2480.239       20.556785     -2500.7958      1.360611       221.80504      264.13332      302.17375      303.52757      347.36603      56491.747      15997.046      33           
   2412000  -2481.0605      19.333958     -2500.3944      1.360611       208.61089      190.36082      291.18975      279.79391      341.64486      56325.121      15949.861      29           
   2413000  -2479.682       20.748744     -2500.4307      1.360611       223.87625      216.36329      319.12258      285.92853      367.31177      55436.878      15698.333      25           
   2414000  -2479.5275      19.590997     -2499.1185      1.360611       211.38431      233.47663      291.11838      279.44934      372.08064      56821.049      16090.296      30           
   2415000  -2480.7917      20.650907     -2501.4426      1.360611       222.8206       261.3137       302.8843       305.72223      346.01296      54628.84       15469.517      28           
   2416000  -2479.2956      20.211148     -2499.5068      1.360611       218.07566      294.84542      305.46888      281.37817      335.73561      57156.642      16185.327      32           
   2417000  -2479.6253      20.416977     -2500.0422      1.360611       220.29653      378.10455      290.66463      294.26401      359.12451      54761.671      15507.131      31           
   2418000  -2480.6405      19.844373     -2500.4849      1.360611       214.1182       295.08916      291.43136      288.07699      329.62397      57093.005      16167.307      34           
   2419000  -2479.405       21.114593     -2500.5196      1.360611       227.82372      230.11328      327.29494      292.38634      356.35441      55595.35       15743.208      30           
   2420000  -2479.0251      20.31408      -2499.3392      1.360611       219.18628      248.23078      311.40515      277.5585       361.05484      56480.026      15993.726      28           
   2421000  -2478.6762      20.944739     -2499.6209      1.360611       225.99101      297.95175      299.26809      313.02126      366.90016      56527.157      16007.073      26           
   2422000  -2478.6027      21.306632     -2499.9093      1.360611       229.89578      304.25882      327.05894      286.87947      368.35503      56946.863      16125.923      29           
   2423000  -2479.1211      21.052799     -2500.1739      1.360611       227.15696      331.66755      306.48792      298.59057      391.48412      56486.92       15995.679      30           
   2424000  -2478.8619      20.413854     -2499.2758      1.360611       220.26283      247.12202      318.0189       267.92007      387.75585      55289.298      15656.542      28           
   2425000  -2479.958       20.907019     -2500.865       1.360611       225.58402      228.74246      302.10109      314.75261      376.27673      57895.502      16394.554      26           
   2426000  -2479.8556      20.779845     -2500.6355      1.360611       224.21182      315.81677      295.05997      312.01682      361.62624      54460.611      15421.879      30           
   2427000  -2478.8519      21.269131     -2500.121       1.360611       229.49115      286.95006      307.98674      319.84673      343.42286      57648.179      16324.518      27           
   2428000  -2477.7591      22.149885     -2499.9089      1.360611       238.99438      346.38984      335.32861      311.98346      318.05637      54423.087      15411.253      27           
   2429000  -2478.0125      21.400573     -2499.4131      1.360611       230.9094       341.32118      315.17792      312.18449      315.93991      56444.772      15983.743      25           
   2430000  -2478.0909      21.36346      -2499.4544      1.360611       230.50895      327.32247      330.48689      289.04032      320.77301      56069.932      15877.598      23           
   2431000  -2478.9788      20.248775     -2499.2276      1.360611       218.48164      280.99785      309.69594      283.09043      302.40281      55420.582      15693.718      24           
   2432000  -2479.9781      20.693136     -2500.6712      1.360611       223.27625      328.71068      299.60494      303.61492      334.97496      57185.379      16193.465      25           
   2433000  -2474.6763      23.386604     -2498.0629      1.360611       252.33841      436.48578      336.25111      345.93033      345.98666      54890.549      15543.626      23           
   2434000  -2477.8441      21.39927      -2499.2433      1.360611       230.89534      259.64196      319.3012       310.07615      348.65042      56257.412      15930.688      26           
   2435000  -2479.6221      20.314651     -2499.9368      1.360611       219.19244      359.8158       294.20224      288.03061      356.54542      54624.866      15468.392      20           
   2436000  -2477.1562      21.131911     -2498.2881      1.360611       228.01057      424.85835      312.89579      284.45701      366.86158      56378.309      15964.923      21           
   2437000  -2479.1476      20.298448     -2499.4461      1.360611       219.01761      389.50797      291.44235      289.06719      346.34117      55254.625      15646.724      22           
   2438000  -2479.5794      20.830577     -2500.4099      1.360611       224.75922      286.78543      290.98902      327.09175      336.73206      56211.19       15917.599      24           
   2439000  -2478.861       20.251563     -2499.1126      1.360611       218.51173      274.60369      297.65644      295.40102      332.77383      56658.638      16044.305      23           
   2440000  -2478.9055      20.14823      -2499.0537      1.360611       217.39678      316.56397      285.32644      298.39417      361.33634      55311.524      15662.836      22           
   2441000  -2478.3961      19.732727     -2498.1288      1.360611       212.91356      307.58917      275.9114       297.43814      359.76532      55509.224      15718.82       27           
   2442000  -2479.3792      20.121132     -2499.5004      1.360611       217.10439      320.76634      265.52532      322.15179      383.40456      55358.685      15676.191      28           
   2443000  -2479.0605      21.645989     -2500.7065      1.360611       233.55741      329.06317      327.51708      299.48699      350.51465      56659.987      16044.687      32           
   2444000  -2478.9473      21.005044     -2499.9523      1.360611       226.64169      282.17238      296.45395      324.12636      352.12379      54911.152      15549.461      25           
   2445000  -2480.4897      19.619621     -2500.1093      1.360611       211.69315      278.85246      282.59574      289.80335      343.00554      55926.131      15836.877      30           
   2446000  -2480.1841      20.379362     -2500.5634      1.360611       219.89066      234.55822      300.74123      296.74601      354.57731      54920.325      15552.058      24           
   2447000  -2479.6872      19.897903     -2499.5851      1.360611       214.69578      218.13859      291.28402      294.99974      345.24496      56200.504      15914.573      24           
   2448000  -2478.706       20.793281     -2499.4993      1.360611       224.3568       258.8255       304.07416      307.49438      351.5973       56110.04       15888.956      27           
   2449000  -2479.0752      21.261186     -2500.3364      1.360611       229.40543      271.46553      318.15107      301.84567      376.34394      57050.756      16155.343      31           
   2450000  -2477.6064      21.684068     -2499.2905      1.360611       233.96827      321.51743      318.53815      312.8352       361.97795      56127.996      15894.04       26           
   2451000  -2479.1835      21.537566     -2500.7211      1.360611       232.38754      398.5451       312.48413      306.74374      358.80328      55299.992      15659.57       24           
   2452000  -2479.7088      19.166906     -2498.8757      1.360611       206.80842      305.62945      273.40926      281.03371      341.14351      56485.879      15995.384      28           
   2453000  -2479.0593      20.768479     -2499.8278      1.360611       224.08918      283.02578      289.2096       326.0274       346.35927      55533.675      15725.744      24           
   2454000  -2479.9223      20.225395     -2500.1477      1.360611       218.22938      250.76084      289.33211      308.56786      338.07136      57841.263      16379.195      23           
   2455000  -2479.7035      20.187874     -2499.8914      1.360611       217.82454      252.30952      296.00348      298.56083      330.28102      55765.513      15791.394      24           
   2456000  -2479.7269      21.185662     -2500.9126      1.360611       228.59054      252.94326      311.81453      319.41996      316.67603      56403.177      15971.965      25           
   2457000  -2479.0334      20.62324      -2499.6566      1.360611       222.52208      234.12357      294.15516      323.57775      319.58021      55745.892      15785.838      24           
   2458000  -2480.4356      20.673574     -2501.1091      1.360611       223.06517      343.13711      299.24341      301.39939      335.45819      57268.517      16217.007      25           
   2459000  -2479.1292      20.637482     -2499.7667      1.360611       222.67575      286.98103      305.21554      302.66088      318.06537      55541.092      15727.844      29           
   2460000  -2479.7823      19.871307     -2499.6536      1.360611       214.40882      271.31887      275.73948      317.31745      318.68213      54985.11       15570.404      32           
   2461000  -2479.3427      20.283517     -2499.6262      1.360611       218.85651      318.9345       289.18764      307.94963      309.50355      55552.682      15731.126      36           
   2462000  -2479.7676      20.674202     -2500.4418      1.360611       223.07195      384.34231      293.06417      312.46382      272.5137       56017.67       15862.799      34           
   2463000  -2477.516       22.652527     -2500.1686      1.360611       244.41782      386.94903      334.23938      337.73031      254.70132      57121.394      16175.346      31           
   2464000  -2479.2077      20.770771     -2499.9784      1.360611       224.11391      292.51875      319.69958      281.44156      347.30452      55725.622      15780.098      30           
   2465000  -2479.477       20.281868     -2499.7589      1.360611       218.83872      307.76896      288.46902      305.59794      350.16096      56795.306      16083.006      34           
   2466000  -2480.5817      20.449591     -2501.0313      1.360611       220.64842      196.05405      311.581        295.29414      356.8724       56224.214      15921.287      32           
   2467000  -2480.5291      19.58027      -2500.1094      1.360611       211.26856      198.80928      300.0417       269.77572      403.15273      55761.792      15790.341      33           
   2468000  -2479.1976      20.453045     -2499.6506      1.360611       220.68569      335.51302      288.90333      306.79059      346.02296      55375.425      15680.931      34           
   2469000  -2482.5912      18.924234     -2501.5155      1.360611       204.19002      250.69982      290.16943      258.06364      326.63389      56324.92       15949.804      28           
   2470000  -2480.7379      19.684445     -2500.4224      1.360611       212.3926       235.10362      292.80207      287.88659      332.13974      56491.505      15996.977      31           
   2471000  -2480.1317      20.068683     -2500.2004      1.360611       216.53848      266.68747      295.57916      295.07823      333.7522       56059.05       15874.516      32           
   2472000  -2480.0779      20.283815     -2500.3617      1.360611       218.85972      257.89115      310.23471      280.11863      361.63831      55801.194      15801.498      35           
   2473000  -2478.1477      21.959097     -2500.1068      1.360611       236.9358       258.55484      327.00499      325.69851      360.90027      54808.504      15520.393      37           
   2474000  -2479.8302      20.675362     -2500.5055      1.360611       223.08447      240.04492      315.25603      289.01519      374.11706      57119.642      16174.85       32           
   2475000  -2480.25        20.984676     -2501.2347      1.360611       226.42192      297.72408      298.80004      324.29256      327.49646      55946.91       15842.761      34           
   2476000  -2480.3734      19.201605     -2499.575       1.360611       207.18282      257.62781      277.09997      293.52594      295.40683      57133.017      16178.637      30           
   2477000  -2480.9018      19.77507      -2500.6769      1.360611       213.37043      384.01213      282.38797      290.17517      275.48793      55273.113      15651.959      35           
   2478000  -2480.3448      19.680657     -2500.0254      1.360611       212.35173      220.71485      293.31241      290.41189      320.57694      55062.649      15592.361      29           
   2479000  -2481.8434      19.47123      -2501.3146      1.360611       210.09204      220.945        307.50755      260.87309      322.26137      56336.563      15953.101      30           
   2480000  -2479.7544      20.851397     -2500.6058      1.360611       224.98386      289.8782       318.78928      290.59394      317.98203      56157.019      15902.259      26           
   2481000  -2481.3458      19.383331     -2500.7291      1.360611       209.14362      313.21318      259.09253      314.17341      316.87363      56789.274      16081.298      34           
   2482000  -2480.1578      20.265901     -2500.4237      1.360611       218.66643      300.72436      291.85232      313.98979      263.25997      55792.188      15798.948      30           
   2483000  -2479.7921      20.425551     -2500.2177      1.360611       220.38904      272.98459      319.98755      283.88193      261.53181      56768.851      16075.514      29           
   2484000  -2477.8889      19.986064     -2497.8749      1.360611       215.64703      320.28224      298.6058       291.22023      265.46905      54712.017      15493.071      24           
   2485000  -2479.0449      20.209356     -2499.2543      1.360611       218.05632      271.88476      303.06881      302.36102      254.42816      57015.499      16145.359      23           
   2486000  -2479.7494      19.407646     -2499.157       1.360611       209.40598      360.1487       285.36723      283.98092      257.04078      55384.189      15683.413      24           
   2487000  -2480.9988      18.585337     -2499.5842      1.360611       200.53337      308.63435      262.36971      290.49452      253.38255      55181.514      15626.021      25           
   2488000  -2480.8405      19.392745     -2500.2332      1.360611       209.24519      303.89928      286.3662       289.49949      251.07509      56488.329      15996.078      24           
   2489000  -2480.4086      20.110673     -2500.5193      1.360611       216.99154      315.94583      290.91777      307.87626      271.56963      54573.001      15453.705      20           
   2490000  -2478.1374      21.389407     -2499.5268      1.360611       230.78892      302.50867      320.52952      318.11987      273.01847      56290.727      15940.122      18           
   2491000  -2479.7644      20.578544     -2500.3429      1.360611       222.03981      221.83553      317.14593      298.502        273.24361      55116.476      15607.603      21           
   2492000  -2478.815       20.824584     -2499.6395      1.360611       224.69455      319.90288      303.06552      317.55495      280.914        57372.052      16246.326      17           
   2493000  -2478.2695      20.696087     -2498.9656      1.360611       223.30808      308.82301      293.24518      325.72258      288.1881       55183.932      15626.705      18           
   2494000  -2480.9767      19.551991     -2500.5287      1.360611       210.96344      220.43915      306.90507      269.07568      275.06797      57607.097      16312.885      17           
   2495000  -2476.9219      22.455801     -2499.3777      1.360611       242.29517      325.35644      350.62495      316.44672      267.17166      55267.797      15650.454      21           
   2496000  -2479.8         21.054035     -2500.8541      1.360611       227.1703       352.95397      331.80727      285.35442      264.89662      56662.33       16045.35       18           
   2497000  -2479.0267      20.356108     -2499.3828      1.360611       219.63976      386.44864      321.11487      272.55776      247.83885      55602.3        15745.177      19           
   2498000  -2477.1673      21.595463     -2498.7628      1.360611       233.01224      391.68355      303.93282      344.83868      266.9731       55631.509      15753.448      17           
   2499000  -2478.9785      21.238042     -2500.2165      1.360611       229.15571      429.82323      339.1876       272.07797      273.50368      56988.434      16137.695      18           
   2500000  -2476.7006      22.300708     -2499.0013      1.360611       240.62173      298.48208      333.10565      340.8482       261.51269      54398.163      15404.195      18           
   2501000  -2478.5383      20.350819     -2498.8892      1.360611       219.58269      426.90981      318.98857      271.62323      249.30428      57588.768      16307.694      19           
   2502000  -2478.0357      21.801399     -2499.8371      1.360611       235.23425      351.36887      322.16723      331.39856      258.54039      54139.965      15331.08       19           
   2503000  -2479.7882      19.789608     -2499.5778      1.360611       213.52729      318.74721      296.92187      286.63716      265.50981      57492.053      16280.307      21           
   2504000  -2478.9694      20.533772     -2499.5032      1.360611       221.55673      395.0315       304.72146      298.48379      254.04552      54973.305      15567.061      24           
   2505000  -2478.6236      20.588877     -2499.2125      1.360611       222.1513       383.01589      284.23671      325.32719      277.70735      56770.035      16075.85       27           
   2506000  -2477.7399      21.30336      -2499.0433      1.360611       229.86048      336.40944      315.31601      316.66152      279.64459      57471.026      16274.353      22           
   2507000  -2479.2247      20.365496     -2499.5902      1.360611       219.74105      415.0295       313.43154      276.56634      262.24797      54985.554      15570.529      21           
   2508000  -2479.5423      20.446775     -2499.9891      1.360611       220.61804      430.95711      298.94474      295.41184      279.15093      56687.548      16052.491      22           
   2509000  -2480.572       19.803661     -2500.3757      1.360611       213.67893      391.76551      309.0475       263.33349      266.90846      54760.026      15506.666      18           
   2510000  -2478.8802      20.599341     -2499.4795      1.360611       222.26421      364.76331      301.92864      306.95825      275.50007      57375.497      16247.301      18           
   2511000  -2479.8387      20.294346     -2500.1331      1.360611       218.97335      335.29137      288.31536      319.09399      263.59769      54864.897      15536.362      21           
   2512000  -2479.6129      20.180976     -2499.7939      1.360611       217.7501       269.42161      304.84685      290.86828      291.20007      57172.635      16189.856      22           
   2513000  -2480.5583      19.387957     -2499.9463      1.360611       209.19353      300.71265      288.0568       282.23862      279.19853      55044.331      15587.174      19           
   2514000  -2480.2624      19.330061     -2499.5925      1.360611       208.56884      265.74086      294.42243      271.80569      287.92983      57306.38       16227.729      19           
   2515000  -2479.052       19.581427     -2498.6335      1.360611       211.28105      245.2259       291.97584      287.0127       291.38476      56598.697      16027.331      19           
   2516000  -2478.9558      20.250562     -2499.2064      1.360611       218.50093      291.9551       290.02103      311.85031      297.10676      55772.99       15793.512      28           
   2517000  -2480.8676      20.03988      -2500.9075      1.360611       216.22769      321.04512      299.73121      284.65471      299.71011      57686.905      16335.484      25           
   2518000  -2479.145       20.761953     -2499.907       1.360611       224.01877      321.05342      294.59956      320.17359      309.81085      54957.916      15562.703      22           
   2519000  -2479.3711      20.439461     -2499.8106      1.360611       220.53913      372.4202       283.52567      324.02276      282.83672      57066.3        16159.745      20           
   2520000  -2478.0175      20.729584     -2498.747       1.360611       223.66952      233.87634      297.11762      328.63635      290.03037      55001.844      15575.142      21           
   2521000  -2478.5611      20.091603     -2498.6527      1.360611       216.78579      225.41769      298.9791       299.12595      294.80649      58108.599      16454.897      20           
   2522000  -2480.275       20.581003     -2500.856       1.360611       222.06634      244.71897      305.87039      310.84031      283.98615      54672.809      15481.968      26           
   2523000  -2478.5406      20.573641     -2499.1143      1.360611       221.9869       333.60458      294.67926      312.07577      298.94396      56439.049      15982.123      28           
   2524000  -2479.7587      19.72876      -2499.4875      1.360611       212.87075      246.44711      294.55089      288.98436      305.00152      55748.918      15786.695      28           
   2525000  -2479.5074      20.908549     -2500.4159      1.360611       225.60052      346.41604      310.54818      300.22616      300.85716      56565.563      16017.948      28           
   2526000  -2480.4335      19.991677     -2500.4251      1.360611       215.70759      298.61264      286.32021      304.77101      303.30735      56880.009      16106.992      28           
   2527000  -2479.7773      19.873965     -2499.6513      1.360611       214.4375       267.61801      268.08354      328.15191      317.41531      54942.512      15558.341      26           
   2528000  -2480.3482      19.677868     -2500.026       1.360611       212.32163      273.10632      285.79927      295.80959      305.31271      57527.904      16290.459      29           
   2529000  -2478.4614      20.745232     -2499.2067      1.360611       223.83836      258.84857      296.06081      326.81324      303.30317      54056.879      15307.552      27           
   2530000  -2479.1257      20.064985     -2499.1906      1.360611       216.49858      327.58995      303.67687      281.04028      289.25709      57431.07       16263.038      25           
   2531000  -2480.1193      20.049343     -2500.1686      1.360611       216.3298       314.23699      292.94475      296.01614      300.15082      54633.814      15470.926      23           
   2532000  -2481.1196      19.499678     -2500.6193      1.360611       210.39899      253.25741      285.02962      292.06699      301.87453      56479.488      15993.574      24           
   2533000  -2479.1222      20.811778     -2499.934       1.360611       224.55637      266.67745      315.44368      299.53708      302.57658      55664.933      15762.912      24           
   2534000  -2478.8502      20.465141     -2499.3153      1.360611       220.81621      365.61187      288.7974       312.39538      304.4418       55625.854      15751.846      22           
   2535000  -2479.7267      20.059556     -2499.7863      1.360611       216.43999      251.70123      293.17798      301.20139      302.82028      56971.941      16133.024      17           
   2536000  -2480.6984      19.996531     -2500.6949      1.360611       215.75997      330.68551      303.60743      279.52182      286.35204      54279.489      15370.59       21           
   2537000  -2478.2239      21.606035     -2499.8299      1.360611       233.12631      295.47675      320.6019       316.32222      323.99831      57088.047      16165.903      21           
   2538000  -2479.0739      19.995182     -2499.069       1.360611       215.74541      245.88855      290.00081      300.32918      330.86243      54112.038      15323.172      24           
   2539000  -2478.6113      21.427134     -2500.0385      1.360611       231.19598      260.47901      315.90425      317.87503      339.62019      56931.346      16121.529      25           
   2540000  -2479.6576      20.841789     -2500.4994      1.360611       224.88019      336.68492      293.5022       318.78514      331.58712      53830.533      15243.456      23           
   2541000  -2479.4408      20.929703     -2500.3705      1.360611       225.82877      333.16148      292.67334      324.46422      329.65528      56461.488      15988.477      21           
   2542000  -2479.9861      20.597023     -2500.5831      1.360611       222.23919      284.12127      295.37848      313.24484      323.83017      55879.213      15823.591      21           
   2543000  -2479.5945      19.861115     -2499.4557      1.360611       214.29885      327.60591      264.63403      324.39525      313.24012      55755.53       15788.567      27           
   2544000  -2480.2895      19.027747     -2499.3173      1.360611       205.30691      249.93738      272.78266      288.91589      319.86449      55389.917      15685.035      29           
   2545000  -2482.3487      19.391512     -2501.7402      1.360611       209.23189      294.50975      285.91306      274.86295      339.25302      54528.603      15441.133      28           
   2546000  -2481.0814      19.357752     -2500.4391      1.360611       208.86762      270.57559      284.78838      277.2995       344.24801      57193.491      16195.762      27           
   2547000  -2479.3851      21.088672     -2500.4738      1.360611       227.54403      257.32607      321.04924      299.72633      332.55434      55108.499      15605.344      29           
   2548000  -2479.4329      20.985868     -2500.4188      1.360611       226.43478      268.33284      308.15714      315.16625      312.73785      58454.31       16552.794      24           
   2549000  -2477.5448      21.418781     -2498.9636      1.360611       231.10586      296.32193      319.9568       312.17559      313.65162      54671.189      15481.509      26           
   2550000  -2479.0979      19.803035     -2498.9009      1.360611       213.67217      249.22802      302.05915      277.09661      332.78867      56637.365      16038.281      32           
   2551000  -2478.06        20.461139     -2498.5211      1.360611       220.77303      301.19774      284.95475      328.85776      282.73827      55939.936      15840.787      32           
   2552000  -2479.3908      20.57497      -2499.9657      1.360611       222.00125      225.71667      286.04128      339.43009      310.287        56048.306      15871.474      31           
   2553000  -2478.4776      20.148148     -2498.6258      1.360611       217.3959       276.98318      308.85591      283.52994      287.41978      56341.462      15954.489      25           
   2554000  -2479.5653      19.090862     -2498.6562      1.360611       205.98792      323.76793      281.65778      274.00419      288.63648      55513.823      15720.122      25           
   2555000  -2479.9025      19.946027     -2499.8485      1.360611       215.21504      349.44561      294.62344      288.42618      279.12091      57183.66       16192.978      26           
   2556000  -2482.8559      18.56246      -2501.4184      1.360611       200.28653      302.15614      269.25829      271.57057      295.7802       54500.1        15433.061      27           
   2557000  -2479.6187      20.164847     -2499.7836      1.360611       217.57607      257.47794      293.95801      310.8454       277.22279      56725.88       16063.346      27           
   2558000  -2479.1879      19.5429       -2498.7308      1.360611       210.86535      304.7658       284.19709      297.08691      256.24052      55113.632      15606.798      26           
   2559000  -2479.8239      20.085575     -2499.9095      1.360611       216.72074      283.23806      313.84926      281.21659      245.3547       55824.257      15808.029      31           
   2560000  -2478.9013      19.927482     -2498.8288      1.360611       215.01494      235.47192      301.02761      299.10777      252.18706      55780.966      15795.77       30           
   2561000  -2479.1073      19.686188     -2498.7935      1.360611       212.41141      322.43128      285.30519      301.52761      247.73871      56229.968      15922.916      24           
   2562000  -2480.2058      19.905762     -2500.1116      1.360611       214.78058      290.85179      295.87889      293.08946      274.82981      56431.06       15979.861      29           
   2563000  -2478.5757      20.74348      -2499.3192      1.360611       223.81945      236.86689      306.08087      319.37752      276.8435       55621.051      15750.486      25           
   2564000  -2479.6414      20.750098     -2500.3915      1.360611       223.89086      253.44071      308.69643      310.89752      296.85756      56656.416      16043.676      29           
   2565000  -2480.2113      19.518547     -2499.7298      1.360611       210.60258      326.81281      287.02885      281.94156      293.71255      55486.361      15712.346      27           
   2566000  -2481.2104      19.386975     -2500.5973      1.360611       209.18293      219.26301      284.74234      293.80196      298.84779      57164.773      16187.63       27           
   2567000  -2479.9614      20.00365      -2499.965       1.360611       215.83678      297.6231       301.62764      283.97902      296.55672      55168.028      15622.202      27           
   2568000  -2479.6804      20.062328     -2499.7427      1.360611       216.4699       247.00867      289.72833      308.97385      302.32129      56955.542      16128.381      24           
   2569000  -2479.1341      21.06846      -2500.2026      1.360611       227.32594      310.72163      318.87313      302.69         286.60478      56413.764      15974.963      23           
   2570000  -2480.7179      19.47475      -2500.1926      1.360611       210.13002      304.11419      281.52879      291.51419      294.92503      57023.236      16147.55       22           
   2571000  -2477.5713      21.008708     -2498.58        1.360611       226.68123      398.16493      305.55935      308.50065      293.28999      56137.037      15896.601      23           
   2572000  -2478.2665      20.989849     -2499.2563      1.360611       226.47774      359.59494      304.98201      307.27518      322.6999       56125.659      15893.379      22           
   2573000  -2478.7723      21.175683     -2499.948       1.360611       228.48286      287.9068       331.80443      282.64108      328.73546      56552.247      16014.178      24           
   2574000  -2478.4699      20.550246     -2499.0201      1.360611       221.73448      253.87016      296.97747      308.23392      348.3991       55582.458      15739.558      23           
   2575000  -2478.2301      20.821518     -2499.0516      1.360611       224.66147      237.27609      311.4877       298.4          366.95113      57133.346      16178.73       27           
   2576000  -2479.5056      20.075804     -2499.5814      1.360611       216.61531      268.43784      295.96421      287.29465      352.24503      55487.722      15712.731      24           
   2577000  -2478.7184      20.90184      -2499.6202      1.360611       225.52813      229.31345      303.03535      319.65856      323.33393      56298.834      15942.417      19           
   2578000  -2479.241       19.69014      -2498.9311      1.360611       212.45405      289.92453      287.97586      291.99954      297.13813      55550.722      15730.571      25           
   2579000  -2481.1242      20.391078     -2501.5153      1.360611       220.01708      277.15958      288.01538      316.80051      329.947        55867.16       15820.178      28           
   2580000  -2480.979       19.674282     -2500.6533      1.360611       212.28294      308.25003      305.60751      258.92384      319.98824      56016.766      15862.543      31           
   2581000  -2479.9496      20.131896     -2500.0815      1.360611       217.22053      312.27705      303.08201      280.98763      319.43547      56167.584      15905.251      31           
   2582000  -2477.861       21.504324     -2499.3654      1.360611       232.02885      210.20664      303.66712      343.75084      354.85015      55599.125      15744.277      26           
   2583000  -2479.9489      19.387665     -2499.3366      1.360611       209.19038      263.8977       278.69567      288.20112      343.61002      55423.698      15694.601      27           
   2584000  -2478.7141      20.115827     -2498.83        1.360611       217.04715      226.94736      303.50014      285.94601      346.08885      55422.259      15694.193      27           
   2585000  -2479.3261      19.560485     -2498.8866      1.360611       211.05509      265.62899      283.22792      286.68738      350.48998      55530.649      15724.887      26           
   2586000  -2478.1749      21.454589     -2499.6294      1.360611       231.49222      335.37859      318.52002      303.69367      349.24073      56059.027      15874.51       27           
   2587000  -2480.931       19.822053     -2500.7531      1.360611       213.87737      303.51972      309.40765      257.03111      334.22068      56278.462      15936.649      24           
   2588000  -2480.479       20.908494     -2501.3875      1.360611       225.59993      275.9475       306.80089      301.52407      379.71009      57229.733      16206.025      27           
   2589000  -2477.6678      21.671645     -2499.3395      1.360611       233.83423      381.97352      287.49137      344.31449      395.76704      55527.743      15724.064      26           
   2590000  -2478.8193      20.510478     -2499.3298      1.360611       221.30539      234.29045      319.66384      263.93115      411.15776      55854.794      15816.676      24           
   2591000  -2478.1882      20.507279     -2498.6955      1.360611       221.27087      297.38495      302.49761      291.3624       369.48297      55700.53       15772.993      29           
   2592000  -2479.6638      19.794465     -2499.4583      1.360611       213.5797       232.50126      293.96542      283.00326      358.98831      57630.96       16319.642      25           
   2593000  -2479.3388      19.471216     -2498.81        1.360611       210.09189      321.01242      275.69369      286.62531      357.77196      55243.805      15643.66       26           
   2594000  -2479.8878      20.079534     -2499.9673      1.360611       216.65556      350.94676      287.32129      293.40254      336.93328      56346.771      15955.992      28           
   2595000  -2479.5365      21.103184     -2500.6397      1.360611       227.70061      230.12279      297.85526      331.2259       361.93736      56234.515      15924.204      26           
   2596000  -2480.1521      19.928292     -2500.0804      1.360611       215.02368      340.53425      273.91419      300.28896      374.1692       55812.552      15804.715      25           
   2597000  -2479.9977      19.729064     -2499.7267      1.360611       212.87403      352.45804      296.66264      258.38292      371.23196      57325.96       16233.274      26           
   2598000  -2479.5526      20.006615     -2499.5592      1.360611       215.86877      337.11277      284.01289      296.03311      344.44023      55154.836      15618.466      22           
   2599000  -2477.9375      21.302201     -2499.2397      1.360611       229.84797      250.8485       307.83772      310.03286      407.45378      56664.833      16046.059      24           
   2600000  -2478.2445      20.771907     -2499.0164      1.360611       224.12617      283.29809      318.99327      275.96184      378.07172      55009.164      15577.215      27           
   2601000  -2477.2039      21.425714     -2498.6296      1.360611       231.18066      309.61322      309.12042      318.44865      357.75719      57333.816      16235.498      26           
   2602000  -2477.6403      20.750204     -2498.3905      1.360611       223.892        292.51904      304.56932      301.39337      348.97244      54826.72       15525.552      28           
   2603000  -2479.7386      19.24         -2498.9787      1.360611       207.5971       259.78647      277.00503      280.1243       367.18007      55852.473      15816.019      25           
   2604000  -2478.7891      21.441712     -2500.2308      1.360611       231.35328      296.38721      307.18745      319.74714      379.06393      56915.777      16117.12       26           
   2605000  -2477.7662      20.940712     -2498.7069      1.360611       225.94756      310.37447      306.99002      301.50591      350.92528      54956.339      15562.257      20           
   2606000  -2479.7263      20.811761     -2500.538       1.360611       224.5562       296.67058      303.38169      300.61876      376.67299      57180.091      16191.967      26           
   2607000  -2480.0043      19.431419     -2499.4357      1.360611       209.66248      306.13157      291.79572      265.3375       343.29558      55277.865      15653.305      26           
   2608000  -2478.8416      21.060545     -2499.9021      1.360611       227.24054      326.13479      314.31803      298.51653      330.39923      56760.436      16073.132      31           
   2609000  -2479.0381      20.934524     -2499.9727      1.360611       225.88079      317.34127      303.00473      309.12199      342.79977      56143.058      15898.306      30           
   2610000  -2478.4012      20.404829     -2498.806       1.360611       220.16545      260.78638      303.3531       293.31668      357.44874      56202.262      15915.071      29           
   2611000  -2479.5126      20.270679     -2499.7832      1.360611       218.71798      348.31282      303.72136      272.72637      365.60113      56304.148      15943.922      31           
   2612000  -2479.5588      19.881685     -2499.4405      1.360611       214.5208       257.7291       283.75443      295.22409      386.38236      54675.565      15482.748      28           
   2613000  -2478.342       20.795373     -2499.1373      1.360611       224.37936      285.19827      297.75805      309.43256      383.35224      57290.959      16223.362      31           
   2614000  -2479.4036      21.619703     -2501.0233      1.360611       233.27378      379.37808      323.43332      293.49823      370.2421       55301.06       15659.873      31           
   2615000  -2478.9667      21.537784     -2500.5045      1.360611       232.38989      293.12043      316.15974      315.73793      366.37495      57382.884      16249.393      33           
   2616000  -2479.11        20.269716     -2499.3797      1.360611       218.70759      297.45915      296.0524       291.0859       374.53261      54809.084      15520.558      32           
   2617000  -2480.3433      19.748857     -2500.0921      1.360611       213.0876       250.03755      281.85818      301.712        352.96801      56628.815      16035.86       32           
   2618000  -2480.3822      20.616606     -2500.9988      1.360611       222.45049      250.14891      310.21406      297.10652      348.82076      55907.922      15831.721      34           
   2619000  -2479.5792      20.529749     -2500.109       1.360611       221.51332      278.56715      302.16135      296.9745       364.60446      56548.135      16013.013      31           
   2620000  -2481.1954      19.449205     -2500.6446      1.360611       209.85439      305.32294      280.20041      284.59191      340.40808      56511.791      16002.721      30           
   2621000  -2479.294       20.904293     -2500.1983      1.360611       225.55461      364.72998      297.25699      315.69589      309.33595      54907.722      15548.489      28           
   2622000  -2480.0651      20.314207     -2500.3793      1.360611       219.18764      308.60046      299.65717      294.23628      318.97088      55920.155      15835.185      32           
   2623000  -2480.2083      20.471198     -2500.6795      1.360611       220.88156      326.49435      292.95406      305.44665      331.11027      55574.662      15737.35       32           
   2624000  -2479.7806      20.502302     -2500.2829      1.360611       221.21717      321.63125      305.59303      288.85759      332.89189      58135.059      16462.39       29           
   2625000  -2478.451       20.028749     -2498.4797      1.360611       216.1076       320.24302      276.83401      314.29027      320.50509      55349.616      15673.623      28           
   2626000  -2479.1163      20.401693     -2499.518       1.360611       220.13161      237.17062      309.08718      299.04389      292.23946      56081.069      15880.752      28           
   2627000  -2478.2731      20.193354     -2498.4665      1.360611       217.88366      296.07094      300.77502      295.41262      285.21909      55039.787      15585.887      29           
   2628000  -2480.3994      19.800594     -2500.2         1.360611       213.64583      270.7258       295.6495       291.9012       275.15143      55997.723      15857.15       23           
   2629000  -2479.0793      21.410089     -2500.4894      1.360611       231.01208      276.51575      310.76606      332.70638      287.69723      55970.053      15849.315      24           
   2630000  -2480.7769      19.427851     -2500.2047      1.360611       209.62398      228.69729      293.30902      281.69028      292.85207      55431.862      15696.913      24           
   2631000  -2480.3541      19.751977     -2500.1061      1.360611       213.12126      250.79294      292.19657      295.6334       289.85143      56385.497      15966.958      29           
   2632000  -2481.2535      19.03015      -2500.2836      1.360611       205.33284      220.06534      286.06368      280.10863      271.40694      55219.64       15636.817      20           
   2633000  -2481.3071      19.420166     -2500.7273      1.360611       209.54106      316.67139      293.69513      273.61112      276.29294      56356.635      15958.785      23           
   2634000  -2479.3367      21.006223     -2500.3429      1.360611       226.65441      333.25607      298.5654       326.4784       287.55897      54663.613      15479.364      27           
   2635000  -2479.2196      20.321201     -2499.5408      1.360611       219.26311      235.79406      299.04091      316.98043      262.77415      57225.656      16204.87       32           
   2636000  -2481.0263      18.86249      -2499.8888      1.360611       203.52381      221.06826      288.9722       278.28401      230.43652      54702.506      15490.377      29           
   2637000  -2480.235       20.079367     -2500.3143      1.360611       216.65376      281.48109      292.60797      314.75452      224.24309      56108.023      15888.385      30           
   2638000  -2482.1454      18.435843     -2500.5813      1.360611       198.92035      282.46362      264.96905      284.44336      240.92392      55755.022      15788.423      34           
   2639000  -2481.2122      19.606256     -2500.8185      1.360611       211.54895      218.50241      294.04757      297.68102      260.94348      55866.728      15820.056      33           
   2640000  -2478.9077      20.960345     -2499.868       1.360611       226.15939      257.17513      312.84529      317.03029      271.35899      57161.644      16186.744      34           
   2641000  -2479.9098      20.303424     -2500.2132      1.360611       219.0713       303.89641      307.94548      286.83075      290.15567      54906.388      15548.112      33           
   2642000  -2478.7197      20.814701     -2499.5344      1.360611       224.58792      207.21632      308.21376      320.80451      314.31931      55568.985      15735.742      34           
   2643000  -2478.8323      20.332371     -2499.1646      1.360611       219.38363      298.4201       312.63453      280.58671      299.44074      55232.306      15640.403      32           
   2644000  -2478.7613      20.511844     -2499.2731      1.360611       221.32013      273.56605      318.96858      283.57449      296.05232      56166.426      15904.923      32           
   2645000  -2480.3586      20.11729      -2500.4759      1.360611       217.06294      267.32818      300.48738      298.35201      277.49712      55319.835      15665.189      30           
   2646000  -2479.9582      20.098245     -2500.0564      1.360611       216.85745      265.17799      306.68615      287.25698      284.54473      57170.778      16189.33       29           
   2647000  -2479.4117      20.811154     -2500.2228      1.360611       224.54965      246.78473      291.48271      340.31185      295.69315      55180.096      15625.619      31           
   2648000  -2478.0357      21.013278     -2499.049       1.360611       226.73054      255.40255      334.03618      281.91498      307.32989      56513.719      16003.267      28           
   2649000  -2479.4694      20.41026      -2499.8797      1.360611       220.22405      265.11116      306.56672      288.96165      347.21874      56844.267      16096.87       28           
   2650000  -2482.2979      19.582716     -2501.8807      1.360611       211.29496      262.57751      291.70154      277.47687      341.33035      55558.776      15732.852      27           
   2651000  -2479.268       20.609955     -2499.878       1.360611       222.37873      248.95924      303.45899      303.49059      345.91998      57721.957      16345.41       26           
   2652000  -2478.0344      21.198267     -2499.2326      1.360611       228.72654      287.00906      295.9142       334.35919      355.12424      54101.574      15320.209      35           
   2653000  -2479.0677      20.665493     -2499.7331      1.360611       222.97798      259.00865      302.20059      309.47946      339.20796      56912.447      16116.177      31           
   2654000  -2478.7189      21.41804      -2500.1369      1.360611       231.09786      311.90741      319.39269      304.98828      355.08008      55564.267      15734.407      33           
   2655000  -2477.8393      21.768939     -2499.6083      1.360611       234.88401      266.9235       325.96127      317.69671      347.44768      56366.381      15961.545      32           
   2656000  -2478.1728      21.827988     -2500.0008      1.360611       235.52115      333.47822      312.19284      326.49116      362.55851      55460.77       15705.099      30           
   2657000  -2478.8672      21.136169     -2500.0033      1.360611       228.05651      244.8483       305.45737      320.00518      375.58882      55200.296      15631.339      30           
   2658000  -2480.328       19.188786     -2499.5168      1.360611       207.0445       291.97739      268.87634      282.74447      389.64388      56939.889      16123.948      26           
   2659000  -2481.16        19.284293     -2500.4442      1.360611       208.07501      203.02112      277.92848      283.37357      399.29139      55496.162      15715.121      26           
   2660000  -2478.8819      21.155559     -2500.0375      1.360611       228.26572      248.71032      313.11826      301.0292       412.85143      58363.026      16526.945      28           
   2661000  -2479.594       21.211557     -2500.8056      1.360611       228.86994      305.53877      306.00606      312.81483      366.49855      53651.543      15192.771      25           
   2662000  -2480.596       19.930261     -2500.5263      1.360611       215.04492      280.1131       286.30682      293.12938      365.0075       57449.753      16268.329      27           
   2663000  -2480.1259      19.925515     -2500.0515      1.360611       214.99371      388.94184      271.73186      298.44526      369.49436      53668.551      15197.587      27           
   2664000  -2480.0535      19.992906     -2500.0464      1.360611       215.72086      269.93624      300.22598      277.36825      361.31176      57077.954      16163.045      27           
   2665000  -2479.0207      20.343914     -2499.3646      1.360611       219.50819      304.91535      299.23433      293.27406      336.52411      55664.006      15762.65       26           
   2666000  -2479.9199      20.615145     -2500.5351      1.360611       222.43473      263.89854      301.83777      301.98719      365.26259      55609.074      15747.095      30           
   2667000  -2478.7837      20.659084     -2499.4428      1.360611       222.90883      265.14859      312.66049      287.19588      361.30814      55856.029      15817.026      26           
   2668000  -2479.0326      20.376406     -2499.409       1.360611       219.85876      377.86738      295.40982      289.32426      344.84089      55903.008      15830.329      26           
   2669000  -2478.4179      21.033293     -2499.4512      1.360611       226.94649      352.71638      314.82344      294.81312      322.90226      56747.083      16069.35       25           
   2670000  -2479.1324      21.166788     -2500.2992      1.360611       228.38689      384.61569      314.12405      299.63876      312.50779      55327.282      15667.298      24           
   2671000  -2480.6689      19.481996     -2500.1508      1.360611       210.2082       295.28457      284.8946       284.60991      309.51831      57059.471      16157.811      22           
   2672000  -2479.5856      19.902189     -2499.4878      1.360611       214.74202      270.89422      298.76605      284.7364       307.28453      55632.618      15753.762      22           
   2673000  -2477.7053      21.012134     -2498.7174      1.360611       226.71819      281.12455      327.23009      284.90261      323.75298      56871.583      16104.605      26           
   2674000  -2478.0007      21.793994     -2499.7947      1.360611       235.15435      373.77102      311.47857      324.79886      338.0231       54843.691      15530.358      27           
   2675000  -2477.7904      22.214772     -2500.0052      1.360611       239.69449      329.46963      318.65655      334.16038      361.81672      56725.411      16063.213      30           
   2676000  -2478.6084      20.975561     -2499.5839      1.360611       226.32357      281.25436      314.12817      297.51231      353.21638      56091.795      15883.789      28           
   2677000  -2479.1277      20.366075     -2499.4938      1.360611       219.7473       331.9857       301.22524      284.52039      352.58221      56421.716      15977.214      29           
   2678000  -2480.0781      19.4085       -2499.4866      1.360611       209.41518      285.46971      278.22608      283.83389      369.35203      57557.475      16298.833      29           
   2679000  -2479.3327      20.84393      -2500.1766      1.360611       224.90329      275.03357      304.94121      304.27736      364.76538      55495.8        15715.018      26           
   2680000  -2479.3318      20.603049     -2499.9349      1.360611       222.30422      323.68531      303.84102      290.10367      355.47542      56941.47       16124.396      26           
   2681000  -2478.0445      21.781893     -2499.8264      1.360611       235.02379      331.99859      308.27886      330.16337      357.8312       54107.391      15321.856      25           
   2682000  -2479.7672      21.340702     -2501.1079      1.360611       230.2634       390.82267      307.15876      308.79274      354.85212      56940.858      16124.223      21           
   2683000  -2478.7487      21.189396     -2499.9381      1.360611       228.63082      369.65975      320.27007      280.70066      376.21429      55066.716      15593.512      21           
   2684000  -2477.7588      21.36732      -2499.1261      1.360611       230.5506       435.38081      300.79235      307.92688      380.5753       56773.399      16076.802      24           
   2685000  -2479.1797      20.532463     -2499.7122      1.360611       221.5426       398.84948      307.49973      275.11376      338.73625      55634.315      15754.242      28           
   2686000  -2477.9936      21.79048      -2499.7841      1.360611       235.11644      353.73441      326.66335      301.5151       358.34516      56025.083      15864.898      28           
   2687000  -2479.2793      19.284938     -2498.5642      1.360611       208.08198      271.23699      282.42528      278.5143       337.14864      56461.128      15988.375      29           
   2688000  -2479.8454      21.044303     -2500.8897      1.360611       227.06529      312.66387      308.51909      311.51098      313.1372       55017.55       15579.59       24           
   2689000  -2480.4266      20.410338     -2500.837       1.360611       220.22489      282.06519      286.20718      318.24257      332.67286      56563.543      16017.376      25           
   2690000  -2479.3696      20.580562     -2499.9502      1.360611       222.06159      289.44989      302.39671      305.04646      307.58973      54539.561      15444.236      20           
   2691000  -2479.3415      20.272959     -2499.6144      1.360611       218.74258      221.68569      291.78874      314.85398      317.31572      57369.555      16245.619      25           
   2692000  -2479.6839      20.878653     -2500.5625      1.360611       225.27794      209.33289      338.92581      267.63222      341.83043      54920.786      15552.189      25           
   2693000  -2478.1925      21.199607     -2499.3921      1.360611       228.74099      292.85822      311.00375      310.86743      340.92503      56991.953      16138.691      22           
   2694000  -2478.5005      20.403528     -2498.904       1.360611       220.15141      287.82596      313.52353      281.07901      314.69336      55258.07       15647.699      28           
   2695000  -2479.843       21.139603     -2500.9826      1.360611       228.09356      304.93213      292.42141      339.64641      315.3841       56743.58       16068.358      30           
   2696000  -2479.9852      19.781745     -2499.767       1.360611       213.44245      342.43351      280.90159      300.47567      278.0035       55491.149      15713.701      33           
   2697000  -2479.8103      20.866903     -2500.6772      1.360611       225.15117      282.61347      308.84266      299.5654       361.67008      56243.366      15926.71       28           
   2698000  -2478.9489      20.640277     -2499.5892      1.360611       222.7059       218.77257      299.62845      311.0808       363.72985      56227.224      15922.139      26           
   2699000  -2478.974       21.791833     -2500.7658      1.360611       235.13105      258.6222       316.73417      328.11159      356.23789      56132.711      15895.376      24           
   2700000  -2477.8036      21.413268     -2499.2169      1.360611       231.04637      307.25393      299.07708      330.01284      378.10984      56092.23       15883.912      28           
   2701000  -2478.0148      21.072007     -2499.0868      1.360611       227.36421      355.39054      314.54561      299.66785      293.6682       55060.475      15591.745      33           
   2702000  -2479.4966      21.213519     -2500.7102      1.360611       228.89111      333.32431      292.03376      339.69556      309.80907      56402.75       15971.844      33           
   2703000  -2478.4846      20.660391     -2499.145       1.360611       222.92293      259.22814      296.03392      321.66558      324.81043      55857.194      15817.356      33           
   2704000  -2480.0324      20.618398     -2500.6508      1.360611       222.46983      272.27383      322.98619      281.34487      303.17166      56996.936      16140.102      34           
   2705000  -2480.4062      19.5749       -2499.9811      1.360611       211.21062      291.36182      294.28282      283.83988      264.41804      55276.588      15652.943      29           
   2706000  -2480.6612      18.376146     -2499.0374      1.360611       198.27622      226.63108      289.32126      248.65246      276.35176      55762.62       15790.575      27           
   2707000  -2479.4745      20.542736     -2500.0173      1.360611       221.65344      311.89561      307.04584      302.2331       262.79447      55647.24       15757.902      29           
   2708000  -2480.7751      20.261842     -2501.0369      1.360611       218.62264      368.82838      294.40667      301.27681      242.45421      55235.045      15641.179      34           
   2709000  -2480.6491      20.515312     -2501.1644      1.360611       221.35755      335.03041      294.5787       319.69942      236.64961      56299.906      15942.721      29           
   2710000  -2479.4772      19.847934     -2499.3251      1.360611       214.15662      330.41191      282.16598      311.58455      240.5925       55667.24       15763.566      27           
   2711000  -2479.0649      20.292846     -2499.3578      1.360611       218.95717      267.00675      301.41649      313.19997      222.11643      56948.675      16126.436      28           
   2712000  -2480.0657      20.103485     -2500.1692      1.360611       216.91398      227.09671      318.97757      286.63431      225.07028      54937.671      15556.97       31           
   2713000  -2479.0681      20.03868      -2499.1068      1.360611       216.21474      265.8492       299.07145      305.28754      221.588        56533.33       16008.821      33           
   2714000  -2480.372       20.115359     -2500.4873      1.360611       217.0421       282.63602      308.51337      288.11656      244.11238      55505.142      15717.664      36           
   2715000  -2479.3269      20.736137     -2500.063       1.360611       223.74022      316.82414      294.40696      326.47795      267.02814      56784.005      16079.806      30           
   2716000  -2479.8517      20.36255      -2500.2142      1.360611       219.70927      336.36349      291.26658      307.05338      296.99781      55756.193      15788.755      34           
   2717000  -2477.9589      20.967436     -2498.9264      1.360611       226.23591      299.17636      320.17233      305.6478       242.57144      54957.958      15562.715      29           
   2718000  -2479.1703      21.24398      -2500.4143      1.360611       229.21978      337.842        325.23431      302.54904      252.49877      57313.886      16229.855      28           
   2719000  -2479.6092      20.394225     -2500.0034      1.360611       220.05104      346.10753      298.57093      302.39889      264.01081      54419.747      15410.307      30           
   2720000  -2480.0997      19.699318     -2499.799       1.360611       212.55307      321.60902      294.65372      281.70704      274.64194      55817.414      15806.091      30           
   2721000  -2479.6882      20.620585     -2500.3088      1.360611       222.49342      298.88408      299.55756      315.97742      273.55788      55184.93       15626.988      32           
   2722000  -2479.8673      19.46383      -2499.3311      1.360611       210.01219      288.05884      299.48082      268.09636      285.37327      57020.416      16146.751      27           
   2723000  -2478.7405      20.616438     -2499.3569      1.360611       222.44869      349.54733      287.20347      321.03097      301.25877      55832.927      15810.484      32           
   2724000  -2481.0527      20.013302     -2501.066       1.360611       215.94093      301.56254      293.49459      292.98508      316.36954      56422.514      15977.44       40           
   2725000  -2479.3099      20.412297     -2499.7222      1.360611       220.24603      335.41796      278.48721      326.64986      296.64295      54962.184      15563.912      40           
   2726000  -2481.5635      19.960781     -2501.5243      1.360611       215.37423      280.24816      287.84039      297.32152      353.58886      56887.666      16109.16       34           
   2727000  -2480.2274      20.173842     -2500.4012      1.360611       217.67313      246.10515      297.8219       296.67362      358.47631      56417.741      15976.089      34           
   2728000  -2480.3673      20.777553     -2501.1448      1.360611       224.18709      244.64717      310.92826      302.7469       348.77707      54868.098      15537.269      32           
   2729000  -2478.472       21.784323     -2500.2564      1.360611       235.05001      321.59581      318.41612      321.04995      344.03811      57553.953      16297.836      32           
   2730000  -2480.7072      19.559313     -2500.2665      1.360611       211.04244      220.37511      279.27316      305.63081      328.6223       54387.589      15401.201      33           
   2731000  -2479.9434      19.77498      -2499.7184      1.360611       213.36946      289.87424      291.83778      281.98017      342.78456      56933.404      16122.112      30           
   2732000  -2479.5465      20.358029     -2499.9046      1.360611       219.66049      226.55309      305.85223      287.39092      378.1067       55238.801      15642.243      27           
   2733000  -2479.3324      20.841222     -2500.1736      1.360611       224.87408      297.46662      313.66072      286.67397      387.95581      55407.695      15690.069      33           
   2734000  -2480.6532      20.665053     -2501.3182      1.360611       222.97323      287.47261      309.90841      286.05597      381.23186      55884.691      15825.143      29           
   2735000  -2478.2534      21.085334     -2499.3387      1.360611       227.50801      237.85149      326.07911      288.0478       389.57513      56408.797      15973.556      33           
   2736000  -2478.8783      21.343386     -2500.2216      1.360611       230.29235      325.20368      308.48923      310.59483      393.69464      56918.135      16117.788      34           
   2737000  -2479.0967      21.385437     -2500.4821      1.360611       230.74608      332.60729      306.84681      315.22126      378.93711      55945.338      15842.316      36           
   2738000  -2479.7083      21.630501     -2501.3388      1.360611       233.39029      299.50252      324.33355      313.1827       324.54484      57384.905      16249.965      35           
   2739000  -2479.1121      21.472344     -2500.5844      1.360611       231.6838       326.24959      316.06586      317.34354      303.37049      55221.321      15637.293      34           
   2740000  -2478.0683      21.147312     -2499.2156      1.360611       228.17674      247.25893      310.42759      326.72522      288.95233      56598.844      16027.373      28           
   2741000  -2480.4853      19.692811     -2500.1781      1.360611       212.48287      226.74536      304.18171      281.63716      275.73971      54012.445      15294.969      29           
   2742000  -2478.73        20.677327     -2499.4073      1.360611       223.10567      273.65439      317.23013      299.14895      257.35214      56475.448      15992.43       30           
   2743000  -2480.0544      19.745192     -2499.7996      1.360611       213.04805      205.03907      290.45365      307.75677      262.85456      55538.43       15727.09       24           
   2744000  -2479.4323      20.408984     -2499.8413      1.360611       220.21028      215.07196      312.33664      302.06181      264.48453      56153.09       15901.146      26           
   2745000  -2481.2101      20.239884     -2501.45        1.360611       218.38571      241.86386      291.3573       321.18166      270.5331       56783.944      16079.788      26           
   2746000  -2479.3107      20.589361     -2499.9001      1.360611       222.15653      300.45341      300.90822      311.16241      283.06865      56012.55       15861.349      27           
   2747000  -2479.8821      20.672895     -2500.555       1.360611       223.05784      260.12206      308.64262      306.3918       298.84949      57395.724      16253.029      29           
   2748000  -2479.0887      19.550303     -2498.639       1.360611       210.94522      192.5275       299.54502      283.70397      282.08588      54580.77       15455.905      23           
   2749000  -2478.3091      21.011557     -2499.3206      1.360611       226.71197      313.59025      309.32478      313.06317      292.26646      56579.008      16021.756      25           
   2750000  -2477.2809      21.075734     -2498.3566      1.360611       227.40443      320.46625      323.01156      294.83606      289.68655      55232.297      15640.401      28           
   2751000  -2479.1936      20.450677     -2499.6442      1.360611       220.66015      325.64197      304.96561      295.55508      287.15037      56759.306      16072.811      26           
   2752000  -2479.3923      19.534631     -2498.927       1.360611       210.77612      283.32057      292.1616       283.53291      279.69154      55529.397      15724.532      25           
   2753000  -2480.2911      19.686648     -2499.9778      1.360611       212.41637      265.2107       296.84002      286.49452      274.15889      56731.706      16064.996      27           
   2754000  -2480.9883      19.548529     -2500.5368      1.360611       210.92609      270.41896      294.55614      284.79981      266.49551      56263.136      15932.309      29           
   2755000  -2479.8219      20.29839      -2500.1203      1.360611       219.01698      241.97182      307.68077      299.33551      273.73438      56013.066      15861.495      28           
   2756000  -2478.5843      21.104147     -2499.6884      1.360611       227.711        232.51917      320.00965      317.75159      261.8093       56719.956      16061.669      27           
   2757000  -2479.8916      19.802061     -2499.6937      1.360611       213.66166      302.30628      298.63626      285.49704      262.71816      54541.228      15444.707      29           
   2758000  -2478.912       21.098285     -2500.0102      1.360611       227.64774      309.71788      329.84523      288.6006       284.48801      56641.489      16039.449      31           
   2759000  -2477.5622      21.101384     -2498.6636      1.360611       227.68119      256.96387      303.76463      331.616        303.30489      54909.178      15548.902      32           
   2760000  -2479.2507      20.665011     -2499.9157      1.360611       222.97278      314.29238      309.09259      293.45309      320.94277      56060.879      15875.035      27           
   2761000  -2480.3715      20.003572     -2500.3751      1.360611       215.83594      279.2635       294.75787      293.33016      313.15379      55795.274      15799.822      26           
   2762000  -2479.0743      20.591221     -2499.6655      1.360611       222.1766       265.01412      291.38069      323.24811      320.61154      55516.567      15720.899      26           
   2763000  -2479.1832      19.539917     -2498.7232      1.360611       210.83316      317.23269      292.7602       276.93818      283.04823      57420.869      16260.15       31           
   2764000  -2477.9983      21.352417     -2499.3507      1.360611       230.3898       265.74764      320.04108      322.38841      265.20383      55171.584      15623.209      32           
   2765000  -2479.375       20.199986     -2499.575       1.360611       217.95522      315.53865      297.88652      300.42835      263.31448      57086.164      16165.37       30           
   2766000  -2480.9284      19.598957     -2500.5273      1.360611       211.47019      327.74087      291.39457      284.2973       264.75478      54838.915      15529.005      26           
   2767000  -2479.9274      20.604135     -2500.5316      1.360611       222.31593      439.15214      283.79781      323.82487      265.10691      55969.376      15849.123      24           
   2768000  -2478.2611      21.75785      -2500.019       1.360611       234.76437      326.78028      317.52978      329.82599      293.31839      56945.003      16125.396      26           
   2769000  -2479.6157      21.217799     -2500.8335      1.360611       228.93729      331.18352      312.9712       315.23863      285.26279      56353.679      15957.948      25           
   2770000  -2478.4989      20.567067     -2499.066       1.360611       221.91597      294.08974      285.79489      332.08943      290.38611      56234.616      15924.232      26           
   2771000  -2479.5272      20.313716     -2499.8409      1.360611       219.18235      314.05726      297.50595      304.6701       276.39871      54682.068      15484.59       25           
   2772000  -2479.1751      19.663427     -2498.8385      1.360611       212.16582      271.55872      290.89141      293.10266      276.11231      56855.398      16100.022      25           
   2773000  -2479.5538      20.396338     -2499.9502      1.360611       220.07383      262.90343      306.9037       302.13662      268.92467      55676.3        15766.131      27           
   2774000  -2479.7794      19.942811     -2499.7222      1.360611       215.18033      300.61234      283.56735      312.17494      271.50979      55532.46       15725.399      27           
   2775000  -2481.0701      18.820835     -2499.8909      1.360611       203.07436      335.81966      275.81685      271.73739      272.68705      55439.078      15698.956      29           
   2776000  -2480.1471      19.787603     -2499.9347      1.360611       213.50566      275.24293      309.93151      271.57519      269.1996       55870.151      15821.025      32           
   2777000  -2481.8909      19.429955     -2501.3208      1.360611       209.64669      216.01439      305.51777      270.08418      270.78088      55713.685      15776.718      26           
   2778000  -2480.4023      19.096592     -2499.4989      1.360611       206.04974      252.30335      277.39809      294.68566      262.13264      56735.895      16066.182      26           
   2779000  -2481.4257      19.299588     -2500.7253      1.360611       208.24004      206.49549      284.74329      297.10626      269.02432      56256.793      15930.512      26           
   2780000  -2480.9886      19.077532     -2500.0661      1.360611       205.84409      211.06444      286.69493      284.36253      265.95513      54938.918      15557.323      24           
   2781000  -2479.7459      20.245877     -2499.9918      1.360611       218.45038      222.00309      310.12024      302.31313      237.85207      56738.598      16066.948      25           
   2782000  -2478.7305      19.789028     -2498.5195      1.360611       213.52104      306.3681       297.07478      289.24457      254.67107      54323.772      15383.129      24           
   2783000  -2478.2267      20.961739     -2499.1884      1.360611       226.17444      240.51554      335.34083      279.6301       303.74523      56973.865      16133.569      25           
   2784000  -2478.8656      20.834626     -2499.7002      1.360611       224.8029       335.23293      310.48427      301.80449      290.66712      55217.833      15636.305      23           
   2785000  -2479.4526      20.650304     -2500.1029      1.360611       222.81409      223.95763      310.42718      311.41548      273.22813      56941.473      16124.397      24           
   2786000  -2479.2267      20.370036     -2499.5968      1.360611       219.79004      341.92666      285.28553      324.76164      262.22992      56080.974      15880.725      23           
   2787000  -2480.0694      18.850233     -2498.9196      1.360611       203.39156      353.13483      275.75911      280.59714      242.72235      55964.618      15847.776      20           
   2788000  -2479.17        19.283651     -2498.4536      1.360611       208.06808      275.31369      277.8468       302.10559      245.89868      56729.728      16064.436      26           
   2789000  -2481.1702      20.161058     -2501.3313      1.360611       217.5352       314.62036      301.61099      290.69712      282.21483      55101.317      15603.311      27           
   2790000  -2480.4451      19.699708     -2500.1449      1.360611       212.55728      262.22391      277.92264      318.17535      258.57397      57378.92       16248.271      25           
   2791000  -2480.067       20.163257     -2500.2303      1.360611       217.55892      370.61591      299.94806      290.93442      266.46269      54597.567      15460.661      22           
   2792000  -2479.2141      20.518147     -2499.7323      1.360611       221.38813      203.8826       317.57036      294.97875      284.53425      57431.447      16263.145      22           
   2793000  -2480.1946      20.15239      -2500.347       1.360611       217.44167      354.98822      307.69338      273.60225      299.69343      55893.745      15827.706      24           
   2794000  -2480.7771      18.84661      -2499.6237      1.360611       203.35247      234.58134      264.30657      300.83298      281.52941      55848.307      15814.84       20           
   2795000  -2480.0288      20.068222     -2500.097       1.360611       216.53351      221.12655      287.94696      316.55978      282.77167      56242.096      15926.351      17           
   2796000  -2478.7661      21.94044      -2500.7065      1.360611       236.73449      286.60547      331.12667      327.39477      269.22442      55882.191      15824.434      19           
   2797000  -2478.7626      20.958529     -2499.7211      1.360611       226.1398       301.33772      316.71747      306.43552      271.25999      56833.498      16093.821      20           
   2798000  -2478.285       20.559068     -2498.844       1.360611       221.82967      405.08413      310.18151      286.62613      265.78503      54210.525      15351.061      25           
   2799000  -2479.2388      19.780435     -2499.0193      1.360611       213.42832      239.13296      303.61124      281.5827       281.30489      57262.789      16215.385      21           
   2800000  -2479.1974      19.889174     -2499.0866      1.360611       214.6016       241.03747      297.91454      291.09642      291.23859      54829.166      15526.244      18           
   2801000  -2480.7842      19.198816     -2499.983       1.360611       207.15273      390.03198      275.16217      283.4056       285.18315      57252.294      16212.413      19           
   2802000  -2477.5665      21.202208     -2498.7687      1.360611       228.76906      285.67084      327.71725      298.73025      285.45418      55001.914      15575.162      17           
   2803000  -2480.8022      19.007696     -2499.8099      1.360611       205.09057      333.34132      266.67308      291.66107      297.32769      56635.466      16037.743      16           
   2804000  -2480.8391      19.475169     -2500.3143      1.360611       210.13453      380.87194      283.61391      287.89977      281.39679      55827.425      15808.926      12           
   2805000  -2480.0688      20.315273     -2500.3841      1.360611       219.19915      254.8539       306.20444      295.20479      289.82734      55218.335      15636.447      16           
   2806000  -2478.8463      20.233953     -2499.0803      1.360611       218.32172      254.44492      295.97188      307.88451      289.32458      56538.948      16010.412      20           
   2807000  -2478.1336      21.517426     -2499.651       1.360611       232.17023      320.52568      324.89178      306.96446      309.84782      55401.05       15688.187      17           
   2808000  -2480.0212      19.660943     -2499.6821      1.360611       212.13902      250.30054      288.98703      288.49899      310.2949       57684.879      16334.91       14           
   2809000  -2479.0451      20.819442     -2499.8646      1.360611       224.63907      332.65824      320.28095      284.95329      304.42493      55212.318      15634.743      18           
   2810000  -2478.8917      19.985166     -2498.8768      1.360611       215.63734      272.9203       295.09864      291.6695       312.98563      57070.001      16160.793      20           
   2811000  -2480.5313      19.296338     -2499.8277      1.360611       208.20498      250.69875      285.25536      283.39209      300.2526       54637.692      15472.024      22           
   2812000  -2480.1568      20.041714     -2500.1985      1.360611       216.24749      244.59267      303.38269      288.00703      296.92644      57824.35       16374.405      19           
   2813000  -2479.2627      20.472715     -2499.7354      1.360611       220.89793      260.15951      304.91085      301.866        295.68526      55253.626      15646.441      17           
   2814000  -2479.7215      19.792275     -2499.5137      1.360611       213.55607      221.0879       297.48863      288.29944      298.41946      56886.979      16108.965      19           
   2815000  -2479.4261      20.029098     -2499.4552      1.360611       216.11136      240.30565      297.75138      298.02235      292.8162       55029.406      15582.947      22           
   2816000  -2479.2837      20.416943     -2499.7007      1.360611       220.29616      295.81517      294.0003       310.36479      305.65183      54867.506      15537.101      21           
   2817000  -2479.8056      19.683865     -2499.4894      1.360611       212.38634      278.85689      298.76852      274.87323      304.77656      56257.861      15930.815      18           
   2818000  -2480.0459      19.423071     -2499.4689      1.360611       209.57241      286.82474      283.76373      285.68468      305.94575      55625.171      15751.653      21           
   2819000  -2479.5447      20.985743     -2500.5304      1.360611       226.43343      270.67679      323.79352      295.61996      292.90849      57205.694      16199.217      23           
   2820000  -2479.8562      21.153522     -2501.0097      1.360611       228.24375      288.26681      304.50392      328.91025      292.36716      54311.146      15379.554      22           
   2821000  -2479.9784      20.166314     -2500.1447      1.360611       217.59191      307.63789      301.31019      290.02078      294.1962       57518.893      16287.908      31           
   2822000  -2478.7147      20.579439     -2499.2942      1.360611       222.04946      291.8456       297.45868      311.17847      311.59301      54526.745      15440.606      19           
   2823000  -2478.9396      20.220291     -2499.1599      1.360611       218.17431      376.88994      305.06689      275.93642      303.72839      57537.221      16293.097      26           
   2824000  -2478.5011      21.10926      -2499.6103      1.360611       227.76617      310.64484      306.43         317.58057      313.09769      56107.58       15888.259      27           
   2825000  -2480.4685      20.068678     -2500.5372      1.360611       216.53842      222.15181      290.63608      307.69584      323.38557      55305.771      15661.207      26           
   2826000  -2477.3762      21.799542     -2499.1758      1.360611       235.21422      428.9297       302.40411      331.30819      336.60437      56499.843      15999.338      27           
   2827000  -2479.6624      20.257686     -2499.9201      1.360611       218.57779      265.80386      289.12295      305.01805      356.11721      55244.489      15643.853      24           
   2828000  -2479.5356      19.890435     -2499.426       1.360611       214.61521      340.98954      290.4972       274.05536      378.5813       56908.486      16115.055      30           
   2829000  -2479.6083      19.546935     -2499.1552      1.360611       210.90888      324.93871      284.09329      274.67429      359.08747      55664.354      15762.749      29           
   2830000  -2479.4655      20.736145     -2500.2017      1.360611       223.74031      278.44027      300.49277      304.9856       372.78598      57708.183      16341.51       30           
   2831000  -2478.0921      20.819242     -2498.9113      1.360611       224.63691      267.26077      294.82729      322.10788      345.19343      55626.511      15752.032      25           
   2832000  -2480.3725      18.983772     -2499.3563      1.360611       204.83243      266.64755      282.80002      265.603        331.16945      56507.77       16001.583      20           
   2833000  -2480.0075      20.273851     -2500.2814      1.360611       218.75222      131.65518      302.04539      301.93777      329.68206      55755.349      15788.516      18           
   2834000  -2480.7488      19.687606     -2500.4364      1.360611       212.42671      299.19826      280.10304      296.03344      329.04882      57094.168      16167.636      22           
   2835000  -2480.6752      19.805557     -2500.4807      1.360611       213.69938      217.45167      296.21915      288.03724      322.66479      56361.501      15960.163      23           
   2836000  -2478.8926      20.177231     -2499.0698      1.360611       217.70969      315.493        292.86157      299.40314      308.33609      55232.353      15640.417      25           
   2837000  -2479.7918      19.598485     -2499.3902      1.360611       211.46511      230.36831      286.07053      297.61022      300.80415      57027.609      16148.788      24           
   2838000  -2479.8995      20.410572     -2500.3101      1.360611       220.22741      273.13136      298.12289      305.17238      319.09386      55929.816      15837.921      27           
   2839000  -2479.6854      19.996049     -2499.6815      1.360611       215.75477      230.35141      308.42484      277.8803       316.40405      57762.143      16356.79       24           
   2840000  -2477.7849      21.894228     -2499.6792      1.360611       236.23587      296.59678      309.55541      345.30192      324.08686      55124.913      15609.992      28           
   2841000  -2478.4173      20.641438     -2499.0587      1.360611       222.71843      345.22047      298.52983      303.76762      323.04449      56821.881      16090.531      26           
   2842000  -2478.644       22.051425     -2500.6954      1.360611       237.93201      331.75026      320.17967      329.44414      333.7137       55512.555      15719.763      20           
   2843000  -2477.4803      21.492956     -2498.9732      1.360611       231.9062       314.9908       316.36081      316.38531      321.45222      57071.356      16161.176      20           
   2844000  -2478.5273      21.455744     -2499.983       1.360611       231.50469      340.68065      315.85083      314.65421      315.15395      56467.9        15990.293      18           
   2845000  -2480.9187      19.345939     -2500.2646      1.360611       208.74017      273.29258      294.63048      266.4209       314.59183      55803.352      15802.109      23           
   2846000  -2479.4483      20.651385     -2500.0997      1.360611       222.82576      324.06387      303.11184      302.12867      312.48666      56324.073      15949.564      23           
   2847000  -2479.3985      19.684824     -2499.0833      1.360611       212.39669      267.37134      270.18779      309.33018      348.55224      55851.066      15815.621      20           
   2848000  -2478.5313      21.166622     -2499.6979      1.360611       228.38509      358.14078      300.90673      314.96025      348.98028      56439.21       15982.168      23           
   2849000  -2481.0936      19.393223     -2500.4868      1.360611       209.25035      299.95952      291.34977      263.48914      344.83665      55548.621      15729.976      21           
   2850000  -2479.6071      19.984045     -2499.5911      1.360611       215.62524      297.446        294.99144      282.9764       345.85227      56837.862      16095.057      25           
   2851000  -2478.0612      21.151236     -2499.2124      1.360611       228.21909      263.14996      306.29213      319.4943       349.50781      55130.902      15611.688      28           
   2852000  -2478.8367      21.074126     -2499.9109      1.360611       227.38707      244.06261      307.61488      320.02628      329.07926      56251.946      15929.14       26           
   2853000  -2479.7756      20.240302     -2500.0159      1.360611       218.39023      247.16706      302.83393      287.40315      353.9322       55307.939      15661.821      26           
   2854000  -2478.1935      20.445825     -2498.6393      1.360611       220.60779      250.81841      315.55948      275.18154      361.44545      55805.135      15802.614      25           
   2855000  -2477.7659      21.575135     -2499.3411      1.360611       232.7929       296.85742      315.11748      316.2723       363.60225      55361.026      15676.854      25           
   2856000  -2479.238       21.652044     -2500.8901      1.360611       233.62274      264.64073      328.27015      303.60849      376.26081      55304.331      15660.799      29           
   2857000  -2477.6164      21.690868     -2499.3072      1.360611       234.04164      252.77895      318.78081      318.74496      396.92867      55972.171      15849.915      32           
   2858000  -2476.6801      22.538218     -2499.2184      1.360611       243.18444      214.81202      333.77972      337.70181      368.41207      55415.5        15692.279      25           
   2859000  -2478.2657      20.966721     -2499.2324      1.360611       226.22819      237.43357      295.21317      324.36441      386.14906      56993.738      16139.197      26           
   2860000  -2479.8476      20.32084      -2500.1685      1.360611       219.25922      289.11063      295.80061      294.20962      363.98871      54142.158      15331.701      27           
   2861000  -2479.1985      21.071277     -2500.2697      1.360611       227.35634      288.36938      308.92999      300.32346      403.94675      56978.931      16135.004      30           
   2862000  -2479.4076      20.219161     -2499.6267      1.360611       218.16212      280.63764      306.28768      276.22447      399.9457       54541.73       15444.85       39           
   2863000  -2480.2246      20.489749     -2500.7144      1.360611       221.08173      381.32897      290.36041      296.01716      368.20932      57005.292      16142.469      33           
   2864000  -2478.3009      20.863587     -2499.1644      1.360611       225.11539      308.9106       307.22533      302.62957      341.40419      55010.078      15577.474      34           
   2865000  -2480.7956      19.486929     -2500.2826      1.360611       210.26143      240.36956      274.9949       302.31328      362.30142      57533.269      16291.978      33           
   2866000  -2479.6323      19.989734     -2499.622       1.360611       215.68663      260.27322      274.1778       318.76508      369.57456      55488.504      15712.952      33           
   2867000  -2479.8911      20.750636     -2500.6418      1.360611       223.89666      242.53011      297.29575      313.45995      395.93233      56086.51       15882.292      31           
   2868000  -2482.9396      17.950898     -2500.8905      1.360611       193.68785      231.05976      263.52613      250.2173       372.21834      55135.893      15613.102      25           
   2869000  -2480.8589      20.119379     -2500.9782      1.360611       217.08548      243.61697      295.69951      288.42281      383.64602      55735.252      15782.825      26           
   2870000  -2479.1109      20.35124      -2499.4622      1.360611       219.58723      269.58435      288.31382      300.19279      420.18475      55757.381      15789.091      28           
   2871000  -2479.4445      21.887163     -2501.3317      1.360611       236.15965      396.87007      321.42104      298.13698      408.83901      56071.944      15878.168      25           
   2872000  -2478.9966      20.317592     -2499.3142      1.360611       219.22418      262.4185       287.03231      301.30864      414.11178      55964.352      15847.7        27           
   2873000  -2480.5371      20.372917     -2500.91        1.360611       219.82112      286.14701      286.61942      302.88722      410.58778      54884.816      15542.003      28           
   2874000  -2478.3381      21.875696     -2500.2138      1.360611       236.03591      284.27238      306.35882      336.40893      420.11004      55662.964      15762.355      31           
   2875000  -2479.5229      21.241513     -2500.7644      1.360611       229.19317      300.15951      304.80213      318.48318      361.13706      56308.825      15945.247      27           
   2876000  -2479.1253      20.955191     -2500.0805      1.360611       226.10378      403.05977      305.18883      294.07828      353.24517      56615.245      16032.017      24           
   2877000  -2476.8005      22.442001     -2499.2425      1.360611       242.14627      342.79646      326.52354      333.40603      339.93304      55558.195      15732.687      25           
   2878000  -2478.5405      20.764123     -2499.3047      1.360611       224.04219      381.76382      299.69467      299.80423      328.51859      56384.025      15966.541      29           
   2879000  -2478.1423      20.290729     -2498.433       1.360611       218.93433      328.09832      307.34664      280.41208      309.95391      55599.05       15744.256      30           
   2880000  -2479.2563      20.862682     -2500.119       1.360611       225.10562      301.20273      296.52271      312.30293      376.31865      57102.165      16169.901      28           
   2881000  -2479.2451      20.663523     -2499.9086      1.360611       222.95672      239.71526      319.47226      280.7414       359.82539      55770.522      15792.813      26           
   2882000  -2480.2273      20.223096     -2500.4504      1.360611       218.20458      306.64757      290.50551      297.92732      352.45119      56659.255      16044.48       28           
   2883000  -2480.9986      19.185358     -2500.184       1.360611       207.00751      235.91319      272.46791      290.29903      354.38911      55785.08       15796.935      24           
   2884000  -2476.2701      21.510761     -2497.7808      1.360611       232.09831      198.78726      343.40817      278.33902      385.02599      57494.81       16281.088      23           
   2885000  -2477.9052      20.884071     -2498.7893      1.360611       225.33641      214.30947      307.10511      305.4652       384.28916      56783.913      16079.78       24           
   2886000  -2477.1011      21.078795     -2498.1799      1.360611       227.43745      269.28332      314.69737      291.85817      405.97812      55462.94       15705.713      24           
   2887000  -2478.2792      21.62256      -2499.9018      1.360611       233.30461      299.38733      323.46465      297.29227      410.75147      56941.907      16124.519      29           
   2888000  -2477.7647      21.111082     -2498.8757      1.360611       227.78583      411.80884      285.44058      324.80659      359.76457      55101.823      15603.454      29           
   2889000  -2479.821       21.118101     -2500.9391      1.360611       227.86156      334.89308      292.57257      313.4217       415.80223      56595.725      16026.489      20           
   2890000  -2479.7641      22.113364     -2501.8775      1.360611       238.60032      352.25127      323.59661      310.37912      402.91349      55831.062      15809.956      24           
   2891000  -2478.6229      21.217091     -2499.84        1.360611       228.92965      386.03001      293.44176      310.74086      412.05214      56039.415      15868.956      21           
   2892000  -2478.6687      20.160967     -2498.8297      1.360611       217.53421      375.8541       273.13923      296.8907       431.21848      56063.962      15875.908      23           
   2893000  -2477.9866      21.354204     -2499.3408      1.360611       230.40908      323.30977      311.73322      297.65821      426.78131      55368.558      15678.987      25           
   2894000  -2478.9955      21.1624       -2500.1579      1.360611       228.33954      288.43595      299.48196      320.36788      386.24286      55779.811      15795.443      28           
   2895000  -2479.1109      20.636109     -2499.747       1.360611       222.66092      277.20635      293.64693      309.19862      389.55894      55233.376      15640.706      32           
   2896000  -2479.0107      21.145241     -2500.156       1.360611       228.1544       361.45148      298.25686      315.1402       358.10763      56544.538      16011.995      36           
   2897000  -2478.9092      20.103953     -2499.0131      1.360611       216.91904      249.13608      298.78498      289.46127      346.29681      55372.355      15680.062      26           
   2898000  -2479.513       20.754384     -2500.2674      1.360611       223.9371       306.44441      304.31568      300.73274      344.81691      57179.928      16191.921      26           
   2899000  -2479.9543      20.716992     -2500.6713      1.360611       223.53365      363.71665      298.29137      297.46658      360.2754       55251.269      15645.773      32           
   2900000  -2480.7838      19.631751     -2500.4155      1.360611       211.82403      259.00726      286.49357      284.50852      360.87749      56474.39       15992.13       26           
   2901000  -2480.5827      20.070382     -2500.6531      1.360611       216.55681      258.60258      285.56773      306.02195      351.97377      56102.342      15886.776      29           
   2902000  -2478.6676      20.045101     -2498.7127      1.360611       216.28403      283.71634      295.68118      286.4863       347.64759      55643.52       15756.849      26           
   2903000  -2478.8388      19.980031     -2498.8188      1.360611       215.58194      262.8137       289.94405      304.18895      302.25023      56442.661      15983.146      28           
   2904000  -2478.6074      20.595188     -2499.2026      1.360611       222.2194       262.80306      328.7529       276.63149      278.1734       55560.152      15733.241      29           
   2905000  -2479.3915      20.182028     -2499.5735      1.360611       217.76145      193.87444      308.48811      298.07929      291.04803      57302.723      16226.694      30           
   2906000  -2479.5506      20.508899     -2500.0595      1.360611       221.28835      229.91704      336.20053      259.82685      322.83181      54814.353      15522.05       30           
   2907000  -2478.0445      21.212669     -2499.2572      1.360611       228.88194      218.58039      302.17298      335.87115      357.77463      55893.869      15827.742      32           
   2908000  -2480.8689      19.164802     -2500.0337      1.360611       206.78572      261.12054      273.38023      286.50777      358.16388      55169.24       15622.545      30           
   2909000  -2480.003       20.401399     -2500.4044      1.360611       220.12844      289.44927      284.00516      319.43336      346.97936      57766.356      16357.983      34           
   2910000  -2477.8221      21.061905     -2498.884       1.360611       227.25522      241.01208      297.953        336.35197      335.27869      55384.391      15683.47       33           
   2911000  -2480.6808      19.415623     -2500.0964      1.360611       209.49205      307.86449      300.08114      253.1724       341.18027      56193.155      15912.492      33           
   2912000  -2478.2782      21.924085     -2500.2023      1.360611       236.55803      327.32596      300.68752      357.77293      306.64         56227.333      15922.17       33           
   2913000  -2480.5325      19.861353     -2500.3939      1.360611       214.30141      210.01718      299.80361      292.94779      320.45353      55451.358      15702.433      35           
   2914000  -2479.8005      20.403534     -2500.204       1.360611       220.15147      237.00172      294.15675      316.29467      327.57173      57059.074      16157.698      31           
   2915000  -2481.2654      19.363894     -2500.6293      1.360611       208.9339       265.39133      296.36954      265.27376      340.80389      56570.067      16019.224      35           
   2916000  -2479.783       20.016336     -2499.7994      1.360611       215.97366      275.44803      262.01253      332.4665       410.65877      55674.927      15765.743      37           
   2917000  -2479.4104      21.359027     -2500.7694      1.360611       230.46112      259.05117      313.30262      315.29584      389.74036      56060.466      15874.918      32           
   2918000  -2480.0503      18.915917     -2498.9662      1.360611       204.10029      227.6415       278.7468       271.72735      380.56958      57311.148      16229.079      33           
   2919000  -2479.1175      20.682255     -2499.7998      1.360611       223.15884      295.00195      298.95749      307.73797      351.51255      55033.603      15584.136      32           
   2920000  -2478.7432      20.872988     -2499.6161      1.360611       225.21682      300.14209      291.1272       323.98023      361.83258      55982.077      15852.72       31           
   2921000  -2479.5633      19.976134     -2499.5394      1.360611       215.53988      206.96121      297.31664      290.45443      394.81032      56539.398      16010.539      33           
   2922000  -2481.5906      19.011524     -2500.6021      1.360611       205.13187      236.06292      283.21323      274.39223      335.37242      55845.729      15814.109      32           
   2923000  -2479.7215      20.712693     -2500.4342      1.360611       223.48726      303.62011      314.64836      285.49439      350.33841      56956.127      16128.546      37           
   2924000  -2480.712       20.273525     -2500.9855      1.360611       218.7487       245.15326      300.64099      300.93778      326.57337      55099.799      15602.881      33           
   2925000  -2479.2414      19.467698     -2498.7091      1.360611       210.05393      305.13031      272.54385      297.51189      333.01976      56764.519      16074.288      34           
   2926000  -2479.4782      20.36288      -2499.8411      1.360611       219.71282      212.21463      307.60198      289.78962      372.059        54920.949      15552.235      29           
   2927000  -2480.1491      20.620338     -2500.7694      1.360611       222.49076      344.87064      312.00995      280.66         329.67783      57401.187      16254.576      34           
   2928000  -2480.452       19.97862      -2500.4306      1.360611       215.5667       298.13615      283.3808       308.40932      303.89273      54894.952      15544.873      27           
   2929000  -2481.3669      19.320975     -2500.6878      1.360611       208.47081      286.65823      284.606        278.67977      318.42999      57062.989      16158.807      27           
   2930000  -2480.4659      19.977355     -2500.4433      1.360611       215.55306      276.59821      308.97915      272.38715      310.75754      56033.512      15867.285      27           
   2931000  -2478.5503      21.145257     -2499.6955      1.360611       228.15458      236.75406      313.65012      319.36142      307.23883      55553.832      15731.451      26           
   2932000  -2479.5007      19.805695     -2499.3064      1.360611       213.70087      305.29284      287.55226      295.51261      295.41458      55790.484      15798.465      28           
   2933000  -2480.2119      20.206225     -2500.4181      1.360611       218.02254      196.56371      308.51872      295.13581      299.20474      55633.733      15754.078      26           
   2934000  -2481.5998      19.874167     -2501.474       1.360611       214.43968      317.56675      287.6833       296.3964       299.62805      56072.283      15878.264      22           
   2935000  -2481.7748      18.873195     -2500.648       1.360611       203.63932      292.16607      273.27893      274.4101       324.38407      55505.454      15717.752      24           
   2936000  -2480.0977      20.599952     -2500.6977      1.360611       222.2708       233.6075       291.11006      323.67265      332.67848      56263.994      15932.552      22           
   2937000  -2478.3401      21.06253      -2499.4026      1.360611       227.26196      367.36183      293.64803      324.07107      321.65948      55577.465      15738.144      30           
   2938000  -2478.7726      20.974797     -2499.7474      1.360611       226.31533      284.06931      328.66042      284.38017      307.91368      56586.392      16023.847      29           
   2939000  -2477.3635      20.933745     -2498.2972      1.360611       225.87239      375.54902      311.1113       302.19624      286.21995      55113.307      15606.706      21           
   2940000  -2478.9626      21.376542     -2500.3392      1.360611       230.65011      279.66899      327.90934      316.60358      238.99917      56765.164      16074.47       20           
   2941000  -2478.3067      21.213532     -2499.5202      1.360611       228.89124      263.34615      326.07585      314.459        241.44285      55935.386      15839.498      25           
   2942000  -2479.8522      19.606408     -2499.4586      1.360611       211.55059      266.36917      293.34566      290.67928      260.83333      56721.598      16062.134      24           
   2943000  -2480.0784      20.854714     -2500.9331      1.360611       225.01965      243.56456      319.33934      303.11193      277.10339      56046.035      15870.831      24           
   2944000  -2480.7396      19.231325     -2499.9709      1.360611       207.50349      246.55195      282.29718      284.71858      312.0735       56142.25       15898.077      26           
   2945000  -2480.131       19.42971      -2499.5607      1.360611       209.64404      231.09403      288.41645      283.55092      322.96975      56027.158      15865.486      26           
   2946000  -2478.7814      20.976278     -2499.7577      1.360611       226.33131      241.17022      306.33929      320.96562      318.80509      55045.433      15587.486      28           
   2947000  -2478.898       20.975257     -2499.8732      1.360611       226.32029      331.26336      306.13401      314.19723      289.19609      56757.834      16072.395      26           
   2948000  -2479.8952      20.336038     -2500.2312      1.360611       219.4232       240.26715      317.61422      287.20798      265.52656      55230.679      15639.943      26           
   2949000  -2479.6295      19.810152     -2499.4396      1.360611       213.74897      327.37045      287.1716       299.94816      253.58284      56403.399      15972.028      30           
   2950000  -2477.7885      21.300599     -2499.0891      1.360611       229.8307       307.60808      327.60398      306.38137      250.06873      54342.02       15388.297      26           
   2951000  -2478.6606      21.090981     -2499.7516      1.360611       227.56894      265.2359       322.95993      302.96391      290.5589       56768.565      16075.433      28           
   2952000  -2477.576       20.894957     -2498.471       1.360611       225.45387      337.00954      297.62738      316.79111      317.93814      55749.742      15786.928      29           
   2953000  -2478.1057      21.983535     -2500.0892      1.360611       237.19948      311.21676      323.65042      322.94823      340.273        55894.446      15827.905      26           
   2954000  -2478.9113      20.89019      -2499.8015      1.360611       225.40243      299.09987      290.79271      326.86662      349.61631      55700.035      15772.853      28           
   2955000  -2478.5168      20.867113     -2499.3839      1.360611       225.15344      296.05464      320.95676      281.92409      346.48274      55994.432      15856.218      26           
   2956000  -2478.836       20.956567     -2499.7926      1.360611       226.11863      294.92147      288.38152      336.24304      333.10413      56972.18       16133.092      26           
   2957000  -2480.9741      19.359619     -2500.3337      1.360611       208.88777      250.1498       279.60832      288.68663      340.39714      54471.675      15425.012      28           
   2958000  -2479.0671      20.750334     -2499.8174      1.360611       223.8934       294.07138      283.14901      333.72353      343.22716      57156.496      16185.286      31           
   2959000  -2480.392       19.627748     -2500.0198      1.360611       211.78084      275.69985      276.85386      298.08482      349.27857      55109.642      15605.668      25           
   2960000  -2480.1053      20.244289     -2500.3496      1.360611       218.43324      356.29392      277.86505      306.75605      372.08982      57253.547      16212.768      23           
   2961000  -2478.6319      21.094664     -2499.7266      1.360611       227.60868      399.52523      299.2611       301.74277      378.94145      55937.089      15839.98       30           
   2962000  -2480.1179      21.005847     -2501.1237      1.360611       226.65036      410.94358      306.46291      285.01414      394.15457      56462.052      15988.637      24           
   2963000  -2479.0799      20.641791     -2499.7217      1.360611       222.72224      379.54021      300.45138      284.4307       385.36737      56919.13       16118.07       23           
   2964000  -2480.1807      20.115873     -2500.2965      1.360611       217.04765      311.69         300.5463       270.68501      383.71848      56140.023      15897.446      27           
   2965000  -2479.631       21.230617     -2500.8616      1.360611       229.07559      256.69275      312.11952      308.4046       377.61044      56092.327      15883.94       24           
   2966000  -2477.5935      20.767291     -2498.3607      1.360611       224.07636      288.79062      305.728        296.89929      366.23569      56133.492      15895.597      26           
   2967000  -2479.1732      20.114855     -2499.288       1.360611       217.03667      262.23603      291.6762       299.06823      347.17897      56651.364      16042.245      26           
   2968000  -2479.2403      20.46719      -2499.7075      1.360611       220.83832      277.82532      298.86495      303.37491      332.89954      55888.63       15826.258      28           
   2969000  -2479.4117      20.616738     -2500.0285      1.360611       222.45192      255.06492      299.45808      307.75287      345.35683      56354.789      15958.262      24           
   2970000  -2479.2006      20.027796     -2499.2284      1.360611       216.09731      202.93719      298.69365      297.44268      326.16655      55193.2        15629.33       29           
   2971000  -2480.5482      19.312381     -2499.8606      1.360611       208.37808      348.3979       274.52503      281.79867      330.39474      55503.262      15717.131      26           
   2972000  -2478.7922      21.346377     -2500.1385      1.360611       230.32463      289.30731      328.75842      279.59607      392.55307      56861.96       16101.881      22           
   2973000  -2477.7233      20.389683     -2498.1129      1.360611       220.00202      344.10452      296.16077      290.14445      354.31724      56153.785      15901.343      28           
   2974000  -2477.7373      21.75842      -2499.4957      1.360611       234.77052      294.87852      314.86852      322.38899      396.66507      55125.288      15610.099      35           
   2975000  -2479.6766      20.387783     -2500.0644      1.360611       219.98153      282.70572      295.61162      303.69675      340.28647      56979.017      16135.028      30           
   2976000  -2479.3064      20.613373     -2499.9198      1.360611       222.41561      269.59723      305.2139       305.31668      313.2221       56725.158      16063.142      30           
   2977000  -2479.0937      21.149682     -2500.2434      1.360611       228.20231      330.26624      316.7681       298.62795      328.06506      55480.936      15710.809      29           
   2978000  -2480.1341      19.706796     -2499.8409      1.360611       212.63377      218.80976      297.30598      282.05378      344.69898      56353.178      15957.806      30           
   2979000  -2479.8855      19.988825     -2499.8743      1.360611       215.67682      326.90041      277.86562      304.44326      352.5925       55718.034      15777.949      29           
   2980000  -2480.0456      19.832653     -2499.8783      1.360611       213.99174      276.73635      288.89809      288.21306      356.1021       56789.924      16081.482      28           
   2981000  -2479.1261      20.311763     -2499.4379      1.360611       219.16128      289.78274      283.42692      318.95983      323.41336      55548.088      15729.825      23           
   2982000  -2479.3236      20.746484     -2500.0701      1.360611       223.85186      243.63881      304.1904       310.77406      326.04961      55359.895      15676.534      23           
   2983000  -2478.6433      21.039438     -2499.6828      1.360611       227.0128       251.16966      304.82582      322.29333      326.2349       56690.98       16053.463      26           
   2984000  -2480.3249      19.431648     -2499.7565      1.360611       209.66495      275.76199      270.66932      297.13601      355.13742      55958.567      15846.062      26           
   2985000  -2479.0326      21.316771     -2500.3494      1.360611       230.00518      266.13582      315.29225      311.17494      357.76545      55450.274      15702.127      28           
   2986000  -2478.1782      21.076142     -2499.2543      1.360611       227.40883      329.31407      310.44073      299.24294      356.97225      54699.952      15489.654      30           
   2987000  -2478.6296      20.416144     -2499.0458      1.360611       220.28754      326.50676      302.56096      288.19879      334.63777      56334.158      15952.42       24           
   2988000  -2478.7429      20.1816       -2498.9245      1.360611       217.75683      268.49164      282.78609      317.70845      320.10259      55855.979      15817.012      23           
   2989000  -2478.3336      20.050468     -2498.384       1.360611       216.34194      319.33868      300.41535      282.28356      308.42175      57430.754      16262.949      31           
   2990000  -2478.783       20.227006     -2499.01        1.360611       218.24676      272.5202       285.00006      312.32537      341.81161      54809.882      15520.784      27           
   2991000  -2479.9199      20.39636      -2500.3162      1.360611       220.07407      461.10229      295.84279      282.43667      316.409        56051.262      15872.311      27           
   2992000  -2479.8826      19.744414     -2499.627       1.360611       213.03966      430.26742      274.94896      284.20903      345.42723      56217.724      15919.449      28           
   2993000  -2478.3         22.025892     -2500.3259      1.360611       237.65651      507.65766      304.90738      326.96919      337.4651       56800.208      16084.394      26           
   2994000  -2478.0842      21.886498     -2499.9707      1.360611       236.15246      335.97382      308.89753      328.97998      386.74841      56248.05       15928.037      25           
   2995000  -2478.7626      20.695127     -2499.4577      1.360611       223.29772      225.45908      295.30926      308.34723      395.63356      56670.201      16047.579      21           
   2996000  -2479.3314      21.180057     -2500.5115      1.360611       228.53005      237.61686      298.54807      327.08439      374.75596      56453.638      15986.254      21           
   2997000  -2481.1178      19.295678     -2500.4135      1.360611       208.19785      357.36267      261.26139      295.23852      358.84868      55880.494      15823.954      21           
   2998000  -2479.645       20.890215     -2500.5352      1.360611       225.4027       359.31563      291.98439      318.47939      338.47397      56479.498      15993.577      23           
   2999000  -2479.2497      21.135099     -2500.3848      1.360611       228.04497      307.80898      297.84276      328.12924      331.39125      55031.321      15583.49       25           
   3000000  -2478.7528      20.639756     -2499.3926      1.360611       222.70028      364.9222       312.88637      271.71194      361.75454      55928.842      15837.645      24           
   3001000  -2479.0502      21.045535     -2500.0958      1.360611       227.07858      358.85376      295.62656      315.58491      360.37926      54881.649      15541.106      18           
   3002000  -2480.0368      20.113084     -2500.1499      1.360611       217.01755      361.53683      284.59306      296.16674      348.72454      57054.225      16156.325      19           
   3003000  -2478.1949      21.402776     -2499.5977      1.360611       230.93317      258.2802       316.52743      310.96         354.95129      55711.98       15776.235      21           
   3004000  -2481.2704      19.456083     -2500.7265      1.360611       209.92861      270.88222      267.29416      300.35185      360.13177      55746.247      15785.939      22           
   3005000  -2478.1923      21.133616     -2499.3259      1.360611       228.02896      333.5939       282.35039      335.66501      385.15803      55362.921      15677.39       23           
   3006000  -2478.3824      20.420157     -2498.8025      1.360611       220.33084      204.34189      304.29287      285.6205       388.41142      55811.809      15804.504      19           
   3007000  -2479.5679      20.340468     -2499.9083      1.360611       219.471        291.37392      285.8272       307.56062      359.74649      56527.255      16007.101      21           
   3008000  -2477.9445      21.223564     -2499.1681      1.360611       228.99949      353.37992      319.95912      287.83111      357.00563      54927.225      15554.012      23           
   3009000  -2477.6777      20.403732     -2498.0814      1.360611       220.15361      267.44424      291.02708      306.43026      353.80767      56596.806      16026.796      21           
   3010000  -2478.4312      20.464219     -2498.8954      1.360611       220.80626      339.46078      296.52026      291.43467      359.76664      55123.573      15609.613      23           
   3011000  -2479.0143      20.412633     -2499.427       1.360611       220.24965      345.1499       284.92585      308.57454      353.70785      57175.781      16190.747      21           
   3012000  -2479.6456      20.098813     -2499.7444      1.360611       216.86358      293.59558      311.20908      265.08477      344.13144      55038.918      15585.641      26           
   3013000  -2477.6718      20.61746      -2498.2892      1.360611       222.45971      259.61168      299.14323      304.24369      351.66933      55999.811      15857.742      19           
   3014000  -2478.8096      21.141336     -2499.9509      1.360611       228.11227      293.3087       306.29038      308.75083      364.41103      55629.248      15752.808      17           
   3015000  -2479.3283      20.234659     -2499.563       1.360611       218.32933      408.62087      279.81613      310.37028      307.73139      55720.537      15778.658      23           
   3016000  -2478.4098      20.268734     -2498.6785      1.360611       218.697        356.92856      294.57223      294.74213      311.06796      56341.183      15954.41       25           
   3017000  -2479.4401      20.72515      -2500.1653      1.360611       223.62168      329.2284       306.13168      297.533        325.93243      55818.265      15806.332      21           
   3018000  -2480.6767      19.03599      -2499.7127      1.360611       205.39586      336.49053      288.67016      255.18067      315.08548      57584.535      16306.496      21           
   3019000  -2478.3592      19.825007     -2498.1842      1.360611       213.90924      278.00928      280.39747      302.75255      332.03956      55354.633      15675.043      23           
   3020000  -2477.4931      20.665293     -2498.1584      1.360611       222.97582      322.46967      311.37195      284.98164      339.25199      55944.211      15841.997      26           
   3021000  -2478.6444      20.395274     -2499.0396      1.360611       220.06235      313.36369      291.38346      306.55919      327.6287       55819.588      15806.707      24           
   3022000  -2477.3673      21.538649     -2498.9059      1.360611       232.39922      366.01621      314.81861      317.95068      303.26571      56510.884      16002.465      24           
   3023000  -2477.2983      21.323367     -2498.6216      1.360611       230.07635      371.22925      321.98975      287.70656      354.4005       56237.308      15924.995      26           
   3024000  -2478.6598      20.638628     -2499.2984      1.360611       222.68811      320.75064      310.89776      281.48614      361.4643       55082.22       15597.903      27           
   3025000  -2479.8601      18.97796      -2498.8381      1.360611       204.76972      353.5875       274.6275       260.8459       367.30403      56676.959      16049.493      25           
   3026000  -2478.9254      20.709653     -2499.6351      1.360611       223.45446      353.38995      283.23539      317.50393      371.14418      55063.154      15592.504      32           
   3027000  -2478.6544      20.368071     -2499.0225      1.360611       219.76884      279.89214      300.58243      283.91794      391.30108      57885.764      16391.796      23           
   3028000  -2478.0504      20.7562       -2498.8066      1.360611       223.9567       268.77725      285.10625      325.49238      387.30468      53873.079      15255.504      24           
   3029000  -2479.4453      20.468686     -2499.914       1.360611       220.85446      368.0998       303.27185      274.03269      390.51761      58378.238      16531.252      24           
   3030000  -2477.9816      21.041033     -2499.0227      1.360611       227.03         375.64297      298.72344      303.80387      379.58122      54241.336      15359.786      26           
   3031000  -2478.6409      20.872568     -2499.5134      1.360611       225.2123       360.65325      300.14223      296.92781      386.67292      57854.421      16382.921      24           
   3032000  -2476.6159      21.898978     -2498.5149      1.360611       236.28713      322.20134      330.54455      299.07969      390.03397      56009.583      15860.509      28           
   3033000  -2479.9808      19.855201     -2499.836       1.360611       214.23504      260.68547      295.96031      271.80278      417.14323      57191.842      16195.295      29           
   3034000  -2478.7955      21.484047     -2500.2795      1.360611       231.81007      343.37288      293.58277      329.06879      418.15698      56312.344      15946.243      27           
   3035000  -2478.9366      20.125716     -2499.0623      1.360611       217.15386      260.09563      272.19736      308.89168      449.33198      55565.134      15734.652      26           
   3036000  -2477.4877      21.78743      -2499.2752      1.360611       235.08353      296.2059       320.19213      300.64919      466.36487      57514.859      16286.765      30           
   3037000  -2477.3099      20.585268     -2497.8952      1.360611       222.11236      251.74558      306.91819      282.80886      402.26053      55046.337      15587.742      22           
   3038000  -2475.6627      21.212704     -2496.8754      1.360611       228.88232      259.72216      293.47498      320.25989      427.76062      56610.455      16030.661      20           
   3039000  -2478.9221      21.022574     -2499.9447      1.360611       226.83084      244.69237      302.49559      295.11873      440.70975      55275.242      15652.562      16           
   3040000  -2477.8271      21.282951     -2499.11        1.360611       229.64027      283.26734      311.41385      275.156        533.25469      57972.908      16416.473      25           
   3041000  -2477.34        21.49416      -2498.8341      1.360611       231.91919      339.00221      298.28288      305.8073       519.9108       55375.277      15680.889      30           
   3042000  -2477.2686      20.864555     -2498.1332      1.360611       225.12584      302.05735      282.80854      308.71397      505.45716      57727.934      16347.103      27           
   3043000  -2478.4417      20.730232     -2499.1719      1.360611       223.67651      335.95328      276.83332      314.47816      469.25844      55519.909      15721.845      25           
   3044000  -2478.4173      21.614532     -2500.0318      1.360611       233.21799      256.2327       299.90726      329.77933      480.27173      56393.688      15969.278      34           
   3045000  -2478.3376      20.18733      -2498.5249      1.360611       217.81867      288.97754      285.46802      295.30045      421.67148      54682.258      15484.644      29           
   3046000  -2477.4106      21.237329     -2498.648       1.360611       229.14801      303.29172      298.84669      314.78603      432.7078       55794.864      15799.706      29           
   3047000  -2478.626       21.010211     -2499.6362      1.360611       226.69744      302.06021      315.20692      281.68087      431.75196      56937.395      16123.242      29           
   3048000  -2476.5392      21.646288     -2498.1855      1.360611       233.56062      355.04092      328.4257       288.94458      380.40918      55602.31       15745.179      31           
   3049000  -2478.2626      21.106282     -2499.3689      1.360611       227.73403      292.89147      295.81315      304.565        474.14252      55764.445      15791.092      29           
   3050000  -2478.3857      20.712039     -2499.0977      1.360611       223.4802       324.7507       289.84591      295.26627      464.26712      55292.469      15657.44       28           
   3051000  -2478.5052      20.999454     -2499.5047      1.360611       226.58138      421.0632       291.90528      299.1517       427.51842      56762.144      16073.615      25           
   3052000  -2478.6445      20.790838     -2499.4354      1.360611       224.33044      304.79312      305.27579      282.52074      440.40541      55251.013      15645.701      25           
   3053000  -2477.7459      21.748633     -2499.4945      1.360611       234.66492      329.22774      313.78679      311.62993      410.19301      56510.273      16002.292      24           
   3054000  -2478.5936      20.535977     -2499.1295      1.360611       221.58052      250.54596      291.15116      300.82031      436.04574      55173.585      15623.775      26           
   3055000  -2477.4269      21.510784     -2498.9376      1.360611       232.09856      221.66422      313.46864      306.87922      450.15135      56974.613      16133.781      24           
   3056000  -2479.0351      21.295992     -2500.3311      1.360611       229.78098      268.28756      303.6372       298.26266      489.44873      55706.434      15774.665      21           
   3057000  -2480.4158      19.945787     -2500.3616      1.360611       215.21244      298.42556      274.80873      276.54915      506.22916      55196.97       15630.397      20           
   3058000  -2477.9994      21.12733      -2499.1267      1.360611       227.96114      337.45416      298.90061      289.45113      500.35042      57719.307      16344.66       23           
   3059000  -2478.0498      21.377989     -2499.4278      1.360611       230.66571      332.37959      311.63568      282.56897      490.23463      54715.185      15493.968      23           
   3060000  -2478.4315      20.351265     -2498.7828      1.360611       219.5875       279.63219      294.82314      279.11451      443.18119      56738.569      16066.939      22           
   3061000  -2478.657       20.483662     -2499.1407      1.360611       221.01604      237.7833       296.92742      294.58468      410.81206      54196.834      15347.184      25           
   3062000  -2478.378       20.986675     -2499.3646      1.360611       226.44349      332.71446      312.81444      288.49022      371.43951      56470.731      15991.094      25           
   3063000  -2476.6219      21.841322     -2498.4632      1.360611       235.66503      210.59358      318.78374      322.6888       409.7184       55221.51       15637.346      24           
   3064000  -2477.6114      20.886828     -2498.4983      1.360611       225.36615      340.89823      290.14908      299.62101      454.58005      56675.016      16048.943      22           
   3065000  -2478.9151      20.199892     -2499.115       1.360611       217.95421      298.21185      271.59088      304.34801      450.32355      56207.794      15916.637      22           
   3066000  -2479.5354      20.162974     -2499.6984      1.360611       217.55587      265.14878      290.73011      273.68532      444.43698      56835.216      16094.307      15           
   3067000  -2477.6856      21.335539     -2499.0211      1.360611       230.20769      363.06436      319.59182      272.39624      452.65807      56497.641      15998.715      23           
   3068000  -2479.2441      20.596467     -2499.8406      1.360611       222.2332       413.61908      302.70043      273.22489      399.13598      55768.681      15792.291      20           
   3069000  -2477.5814      20.533623     -2498.115       1.360611       221.55512      378.54542      289.07773      289.87707      419.04159      56817.262      16089.223      19           
   3070000  -2479.6239      20.957244     -2500.5811      1.360611       226.12594      390.18169      283.23329      314.17618      420.19804      55097.323      15602.18       21           
   3071000  -2478.0622      20.864437     -2498.9267      1.360611       225.12456      337.66124      308.05303      283.15363      406.62619      56729.78       16064.451      22           
   3072000  -2479.1122      21.136736     -2500.249       1.360611       228.06263      366.82379      304.35527      292.33413      429.21966      55950.397      15843.749      25           
   3073000  -2476.5975      22.005755     -2498.6032      1.360611       237.43923      341.04762      311.9211       319.61003      437.0216       56228.484      15922.496      28           
   3074000  -2478.6867      20.677353     -2499.3641      1.360611       223.10594      266.3437       296.09215      290.93854      456.93899      56816.978      16089.143      22           
   3075000  -2478.1266      21.789079     -2499.9157      1.360611       235.10133      345.00855      331.02418      275.46274      457.48155      55729.634      15781.234      22           
   3076000  -2477.0753      22.112162     -2499.1874      1.360611       238.58735      295.8714       332.23915      294.89835      444.77761      56839.417      16095.497      21           
   3077000  -2479.114       20.422637     -2499.5366      1.360611       220.35759      330.8363       301.77251      274.39314      397.66031      54978.96       15568.662      18           
   3078000  -2478.5789      21.467119     -2500.046       1.360611       231.62742      306.43619      325.32617      288.4906       385.93877      57628.277      16318.882      19           
   3079000  -2478.5434      20.658252     -2499.2017      1.360611       222.89985      429.51675      290.92884      293.77792      380.36818      55979.336      15851.944      25           
   3080000  -2478.2825      20.856681     -2499.1392      1.360611       225.04087      307.92175      293.2927       313.1069       377.24243      55843.979      15813.614      21           
   3081000  -2480.2157      19.794286     -2500.01        1.360611       213.57777      333.05353      283.47714      282.10344      370.99241      55808.096      15803.453      19           
   3082000  -2479.5443      19.693826     -2499.2381      1.360611       212.49382      375.63116      276.43856      281.33259      384.53595      55655.927      15760.362      21           
   3083000  -2479.5933      20.421969     -2500.0153      1.360611       220.35038      343.66816      284.46907      298.97307      402.8248       55774.637      15793.978      21           
   3084000  -2478.0314      21.095157     -2499.1266      1.360611       227.61399      292.3197       311.91013      288.98978      415.10157      54956.249      15562.231      20           
   3085000  -2477.8349      20.924403     -2498.7593      1.360611       225.77158      293.49605      296.93232      308.53229      387.0079       57185.812      16193.587      20           
   3086000  -2477.4156      20.809989     -2498.2256      1.360611       224.53707      282.87308      295.5852       311.88941      365.05468      55809.565      15803.869      20           
   3087000  -2477.2686      21.418873     -2498.6874      1.360611       231.10685      336.10279      298.86521      333.62353      335.94386      57261.308      16214.966      20           
   3088000  -2476.7482      21.394847     -2498.143       1.360611       230.84762      424.89108      310.87939      302.85783      337.65229      55433.659      15697.421      26           
   3089000  -2478.5657      20.559193     -2499.1249      1.360611       221.83102      422.98659      307.19073      278.67865      320.0197       56539.591      16010.594      24           
   3090000  -2478.1107      21.089524     -2499.2002      1.360611       227.55321      374.48206      307.46692      301.74614      341.78262      55286.357      15655.709      24           
   3091000  -2479.5173      20.552012     -2500.0693      1.360611       221.75353      442.07992      288.96488      294.25489      370.03816      55851.743      15815.813      22           
   3092000  -2479.5126      21.286657     -2500.7993      1.360611       229.68026      304.18284      337.33033      271.08604      357.29638      55615.202      15748.83       24           
   3093000  -2479.8459      20.201301     -2500.0472      1.360611       217.9694       293.99205      297.89459      288.31489      343.63941      56119.997      15891.775      25           
   3094000  -2478.7695      20.712101     -2499.4816      1.360611       223.48088      348.37876      283.32384      327.2668       326.09768      56103.542      15887.116      25           
   3095000  -2477.8802      20.542421     -2498.4227      1.360611       221.65005      232.82905      296.15113      318.72019      306.24808      55660.824      15761.749      20           
   3096000  -2477.1518      20.9815       -2498.1333      1.360611       226.38765      350.67131      304.63115      305.93433      328.4085       56633.447      16037.171      30           
   3097000  -2478.2665      20.572316     -2498.8388      1.360611       221.97262      200.25824      326.21223      282.57629      318.83481      56062.436      15875.475      30           
   3098000  -2478.5876      21.243604     -2499.8312      1.360611       229.21572      199.6237       304.62265      335.43571      345.77115      57107.178      16171.32       27           
   3099000  -2478.8211      21.253074     -2500.0742      1.360611       229.3179       277.38575      312.30797      310.96641      360.96568      55151.601      15617.55       28           
   3100000  -2479.5349      20.405088     -2499.94        1.360611       220.16824      266.10423      307.45063      284.82465      362.57443      56443.982      15983.52       28           
   3101000  -2478.518       19.61018      -2498.1281      1.360611       211.59128      286.14395      285.49463      284.55511      345.65726      55599.666      15744.431      28           
   3102000  -2479.3727      19.942495     -2499.3151      1.360611       215.17692      284.93082      300.72823      279.62124      321.91114      56122.617      15892.517      26           
   3103000  -2477.9148      21.254415     -2499.1692      1.360611       229.33237      358.65376      299.06965      324.22746      336.77371      54879.846      15540.596      24           
   3104000  -2477.7119      21.674227     -2499.3861      1.360611       233.86208      145.76553      322.04515      322.89229      366.93162      55606.009      15746.227      20           
   3105000  -2478.5428      20.111423     -2498.6542      1.360611       216.99964      304.66745      292.64398      289.21257      353.99235      56303.639      15943.778      23           
   3106000  -2479.8086      20.210639     -2500.0193      1.360611       218.07017      350.48737      301.14771      281.42068      320.56522      54866.604      15536.846      27           
   3107000  -2479.3982      19.729913     -2499.1281      1.360611       212.88319      268.04393      287.7828       291.20421      324.59491      55970.205      15849.358      24           
   3108000  -2477.9712      20.517689     -2498.4889      1.360611       221.3832       209.73081      311.5263       292.63912      352.05324      55440.042      15699.229      27           
   3109000  -2479.5195      19.432889     -2498.9524      1.360611       209.67835      359.32225      276.91846      282.78465      331.28951      56550.545      16013.696      26           
   3110000  -2479.661       21.213656     -2500.8747      1.360611       228.89258      276.89501      321.03984      296.42658      358.2107       55704.745      15774.186      26           
   3111000  -2478.8898      20.641899     -2499.5317      1.360611       222.7234       318.901        290.62199      315.07601      343.7059       56257.125      15930.607      30           
   3112000  -2480.5587      20.073094     -2500.6318      1.360611       216.58607      254.05862      289.13828      296.63566      378.89899      56377.485      15964.69       26           
   3113000  -2479.1096      20.18254      -2499.2921      1.360611       217.76698      339.63514      283.94442      299.23759      368.90088      56607.558      16029.84       29           
   3114000  -2478.8285      20.703345     -2499.5319      1.360611       223.3864       270.54865      306.4696       298.06036      358.42569      56445.682      15984.001      25           
   3115000  -2476.5849      22.099938     -2498.6848      1.360611       238.45546      261.04569      329.84568      327.69106      325.72358      57372.294      16246.394      25           
   3116000  -2480.4932      20.29262      -2500.7858      1.360611       218.95473      257.94895      285.04656      319.95541      333.07667      57395.413      16252.941      29           
   3117000  -2478.59        20.851269     -2499.4413      1.360611       224.98247      302.59493      300.91311      313.60032      329.00941      55400.681      15688.083      30           
   3118000  -2479.359       21.483755     -2500.8427      1.360611       231.80692      308.37578      312.50231      316.40802      369.67816      56132.096      15895.201      34           
   3119000  -2479.73        20.557129     -2500.2871      1.360611       221.80875      225.91074      304.71463      290.99308      453.39561      54866.926      15536.937      33           
   3120000  -2480.2245      20.787386     -2501.0119      1.360611       224.29319      334.01452      302.71833      288.40199      439.70262      56605.373      16029.222      38           
   3121000  -2479.7203      20.415704     -2500.136       1.360611       220.28279      288.61222      291.52815      301.94318      403.9176       55680.344      15767.277      36           
   3122000  -2480.8036      20.221015     -2501.0247      1.360611       218.18212      322.82704      298.57139      272.88274      429.53991      55745.278      15785.664      36           
   3123000  -2480.0012      20.195113     -2500.1963      1.360611       217.90264      302.95649      285.11893      299.70968      408.85177      57201.606      16198.06       34           
   3124000  -2479.533       21.098225     -2500.6312      1.360611       227.6471       238.51045      319.61175      296.55918      410.2243       55020.127      15580.32       33           
   3125000  -2479.3569      19.588748     -2498.9457      1.360611       211.36004      269.33145      295.96919      266.61673      382.36083      56642.645      16039.776      32           
   3126000  -2478.2128      20.262644     -2498.4754      1.360611       218.63129      283.58007      290.37388      296.82253      404.2986       55344.497      15672.173      31           
   3127000  -2477.4346      22.005035     -2499.4397      1.360611       237.43146      328.21063      332.60278      305.20888      361.47156      57246.923      16210.892      29           
   3128000  -2478.0908      21.493659     -2499.5844      1.360611       231.91379      398.43394      314.8043       299.89503      353.8077       56053.892      15873.056      34           
   3129000  -2478.5363      21.376061     -2499.9124      1.360611       230.64492      385.37442      312.67617      300.03291      362.03436      55932.064      15838.557      26           
   3130000  -2480.2861      20.833356     -2501.1194      1.360611       224.7892       259.63331      295.32882      311.1193       395.51402      56422.371      15977.4        22           
   3131000  -2480.0052      19.861969     -2499.8672      1.360611       214.30806      247.95204      281.53961      297.12134      384.09345      55327.584      15667.384      27           
   3132000  -2479.128       20.167837     -2499.2958      1.360611       217.60834      341.33526      305.92713      270.86905      336.03106      57142.371      16181.286      27           
   3133000  -2477.184       21.260749     -2498.4447      1.360611       229.40071      366.09115      295.08898      319.13931      391.99122      55968.309      15848.821      31           
   3134000  -2478.014       20.668434     -2498.6824      1.360611       223.00971      258.54906      310.92417      283.77795      418.58606      56754.407      16071.424      31           
   3135000  -2475.8703      22.054357     -2497.9247      1.360611       237.96364      299.78585      324.23728      324.92195      348.62408      55120.101      15608.63       26           
   3136000  -2477.9079      22.192106     -2500.1         1.360611       239.44994      314.29231      337.08243      312.18982      336.79581      55711.033      15775.967      27           
   3137000  -2478.6441      20.400488     -2499.0446      1.360611       220.11861      326.03951      296.29966      291.89139      359.78553      55404.323      15689.114      24           
   3138000  -2478.6991      20.71158      -2499.4107      1.360611       223.47525      339.47494      287.22016      312.89807      374.25979      56295.997      15941.614      21           
   3139000  -2479.9361      19.877531     -2499.8136      1.360611       214.47598      299.96762      286.51326      284.17487      380.10981      55725.948      15780.19       26           
   3140000  -2480.8432      19.890825     -2500.734       1.360611       214.61941      239.97006      282.91372      301.4727       365.68761      55015.369      15578.972      27           
   3141000  -2479.2074      20.587386     -2499.7947      1.360611       222.13522      273.72765      302.28065      309.34397      300.30855      56973.183      16133.376      25           
   3142000  -2478.9202      20.72915      -2499.6493      1.360611       223.66483      287.77614      299.30169      323.53517      269.77431      54812.38       15521.491      26           
   3143000  -2481.159       20.265142     -2501.4242      1.360611       218.65824      267.62738      316.63106      284.42454      257.58583      57212.162      16201.049      33           
   3144000  -2479.5357      19.3315       -2498.8672      1.360611       208.58437      290.97626      286.73414      285.60402      259.86302      54887.476      15542.756      29           
   3145000  -2478.2325      20.453747     -2498.6863      1.360611       220.69327      192.24848      303.87231      311.88387      303.54479      57274.039      16218.571      26           
   3146000  -2479.6341      20.377128     -2500.0113      1.360611       219.86656      286.13088      289.20113      317.5097       305.6187       55853.263      15816.243      28           
   3147000  -2480.6184      19.68726      -2500.3057      1.360611       212.42297      269.1758       277.73885      305.88964      318.44365      56152.154      15900.881      27           
   3148000  -2478.0723      20.858162     -2498.9305      1.360611       225.05685      318.65262      298.78201      318.91362      303.89205      55811.396      15804.387      28           
   3149000  -2480.1958      19.426732     -2499.6225      1.360611       209.61191      299.30723      278.95693      295.1204       287.06422      54942.006      15558.198      26           
   3150000  -2478.1795      22.587403     -2500.7669      1.360611       243.71514      336.07069      319.11197      355.1966       315.89712      56717.302      16060.917      32           
   3151000  -2479.8446      20.805941     -2500.6506      1.360611       224.49339      298.85282      305.19256      309.68479      308.04106      53603.167      15179.072      33           
   3152000  -2478.9437      20.11443      -2499.0581      1.360611       217.03208      332.22134      285.47697      301.36941      328.91193      56520.122      16005.081      31           
   3153000  -2478.7741      20.268766     -2499.0428      1.360611       218.69735      230.83533      305.76781      292.72409      339.73639      54995.409      15573.32       32           
   3154000  -2478.6974      21.425283     -2500.1227      1.360611       231.17601      251.81378      315.73809      319.52955      339.41418      56954.638      16128.125      26           
   3155000  -2478.9488      20.009906     -2498.9587      1.360611       215.90429      331.91035      292.30361      293.64377      292.98987      55508.579      15718.637      28           
   3156000  -2480.1813      20.312156     -2500.4934      1.360611       219.16552      286.38749      316.36701      277.9161       290.07656      56975.125      16133.926      26           
   3157000  -2480.7922      19.573315     -2500.3655      1.360611       211.19352      253.60181      297.88975      278.12399      290.98803      56331.354      15951.626      23           
   3158000  -2478.3111      21.3606       -2499.6717      1.360611       230.47809      356.76658      303.3136       336.93704      271.7978       55270.969      15651.352      20           
   3159000  -2479.2981      20.632466     -2499.9306      1.360611       222.62162      276.76914      307.01658      314.0029       248.05065      57530.627      16291.23       24           
   3160000  -2479.6433      20.057365     -2499.7007      1.360611       216.41636      392.4988       294.31707      295.15082      245.39503      54569.672      15452.762      25           
   3161000  -2480.2377      20.485363     -2500.7231      1.360611       221.0344       314.7851       314.72796      294.04258      222.36465      57285.759      16221.89       29           
   3162000  -2479.0461      20.292047     -2499.3381      1.360611       218.94855      330.16285      298.8363       304.50352      242.14251      55271.271      15651.437      28           
   3163000  -2479.316       19.935852     -2499.2519      1.360611       215.10524      244.65719      280.07036      327.94649      254.28138      56257.442      15930.696      28           
   3164000  -2480.4793      19.720372     -2500.1997      1.360611       212.78025      306.76335      296.37837      285.23772      260.46205      55814.276      15805.203      28           
   3165000  -2479.8353      19.956999     -2499.7923      1.360611       215.33342      339.69676      302.63529      276.85449      283.19546      56282.471      15937.784      29           
   3166000  -2478.4491      20.836239     -2499.2853      1.360611       224.8203       300.7282       307.20904      316.64136      259.63115      57228.052      16205.549      24           
   3167000  -2479.1173      20.821304     -2499.9386      1.360611       224.65916      434.5419       291.4789       320.51978      272.66973      54701.271      15490.028      24           
   3168000  -2478.46        20.66201      -2499.1221      1.360611       222.9404       337.55856      292.64093      329.8742       244.63373      57126.788      16176.873      23           
   3169000  -2479.6841      20.919851     -2500.6039      1.360611       225.72247      235.02839      308.81613      330.50579      234.79343      54824.18       15524.832      19           
   3170000  -2480.3811      20.634752     -2501.0158      1.360611       222.64629      333.78937      304.87185      313.93589      234.08841      58221.345      16486.824      23           
   3171000  -2480.7351      18.838574     -2499.5737      1.360611       203.26576      296.72746      281.06906      278.13792      239.70658      55336.502      15669.909      23           
   3172000  -2479.7394      20.068686     -2499.8081      1.360611       216.53851      277.78821      299.51689      302.00386      246.38939      57053.735      16156.186      26           
   3173000  -2479.0806      20.285573     -2499.3662      1.360611       218.87869      228.18183      323.86958      285.94171      234.54769      55260.179      15648.296      26           
   3174000  -2480.0855      19.793443     -2499.879       1.360611       213.56867      275.71163      290.22992      304.3311       248.09282      56557.567      16015.684      24           
   3175000  -2479.113       20.805574     -2499.9185      1.360611       224.48943      302.07162      298.08793      324.94885      277.15856      56066.051      15876.499      27           
   3176000  -2480.9139      19.537935     -2500.4518      1.360611       210.81177      290.71579      299.04979      273.78398      271.65926      56021.385      15863.851      31           
   3177000  -2480.6234      20.299003     -2500.9224      1.360611       219.0236       252.32497      305.38066      295.75178      298.31362      56579.581      16021.918      24           
   3178000  -2479.345       20.909275     -2500.2543      1.360611       225.60835      316.81272      308.96594      312.66322      275.08152      53970.702      15283.149      24           
   3179000  -2478.1021      20.622869     -2498.725       1.360611       222.51807      227.6595       295.41383      334.04785      263.41662      56771.54       16076.276      25           
   3180000  -2479.7478      20.401861     -2500.1497      1.360611       220.13343      335.52225      295.41328      311.5366       252.6696       55327.6        15667.388      29           
   3181000  -2480.6116      20.139927     -2500.7515      1.360611       217.30719      345.10281      285.93903      313.83826      248.11474      56376.491      15964.408      29           
   3182000  -2479.6114      20.207472     -2499.8189      1.360611       218.03599      196.71491      279.76028      344.95079      262.38734      55679.256      15766.968      28           
   3183000  -2480.9793      19.452156     -2500.4314      1.360611       209.88623      221.51883      303.15086      273.7316       272.46849      56528.174      16007.361      27           
   3184000  -2480.4378      19.357091     -2499.7949      1.360611       208.86049      249.22388      281.59298      295.84725      282.94841      56849.193      16098.265      26           
   3185000  -2480.7343      19.898159     -2500.6325      1.360611       214.69854      265.98737      293.42226      300.37224      271.82257      55580.472      15738.995      25           
   3186000  -2482.1992      18.615357     -2500.8146      1.360611       200.85728      249.65584      282.70955      266.62657      267.80683      57335.705      16236.033      28           
   3187000  -2479.7883      20.07481      -2499.8632      1.360611       216.60458      262.23622      309.22203      290.23632      245.95243      55385.301      15683.728      29           
   3188000  -2478.9635      19.254437     -2498.218       1.360611       207.75287      214.24206      287.7136       298.0189       232.43841      55442.183      15699.835      31           
   3189000  -2477.3099      20.279257     -2497.5892      1.360611       218.81055      225.63184      318.05938      291.5591       246.25011      54695.632      15488.431      33           
   3190000  -2479.3049      19.689941     -2498.9948      1.360611       212.4519       229.56899      296.59442      292.5269       271.29202      55904.427      15830.731      28           
   3191000  -2480.2991      19.999524     -2500.2986      1.360611       215.79226      249.07634      303.51008      289.6511       285.89309      55736.909      15783.294      27           
   3192000  -2480.5874      19.650761     -2500.2381      1.360611       212.02915      285.37893      289.00364      290.62903      291.20947      55482.944      15711.378      25           
   3193000  -2479.5001      21.037592     -2500.5377      1.360611       226.99288      351.46229      319.72324      294.93862      290.57015      56823.425      16090.968      22           
   3194000  -2480.7824      19.273979     -2500.0564      1.360611       207.96372      333.83566      265.59475      301.58251      304.38387      55453.599      15703.068      22           
   3195000  -2481.7667      19.099424     -2500.8661      1.360611       206.0803       222.50592      272.73785      291.76762      332.20191      57027.955      16148.886      25           
   3196000  -2479.5466      20.105043     -2499.6516      1.360611       216.9308       209.8241       284.99057      315.84947      332.34157      55856.006      15817.02       24           
   3197000  -2479.221       21.321161     -2500.5422      1.360611       230.05255      232.34835      316.7914       321.42232      301.32797      56417.717      15976.082      20           
   3198000  -2478.6197      19.218951     -2497.8387      1.360611       207.36998      293.47609      280.83844      282.80921      296.52292      55686.683      15769.072      18           
   3199000  -2480.4305      18.987127     -2499.4176      1.360611       204.86863      364.92227      249.93968      314.97435      281.21854      56284.786      15938.439      19           
   3200000  -2478.0047      21.156859     -2499.1616      1.360611       228.27975      330.13865      303.94003      325.94476      289.17925      55506.703      15718.106      23           
   3201000  -2478.4927      21.187291     -2499.68        1.360611       228.60812      250.74232      314.6098       317.06442      306.54546      56031.446      15866.7        23           
   3202000  -2480.2921      20.742822     -2501.035       1.360611       223.81235      222.2429       306.30227      306.1663       335.65331      57587.118      16307.227      19           
   3203000  -2478.8327      21.160033     -2499.9928      1.360611       228.314        302.72173      297.07315      329.03627      336.48034      55453.241      15702.967      21           
   3204000  -2480.1989      19.899318     -2500.0982      1.360611       214.71105      226.55085      302.55831      281.32428      315.7497       57568.902      16302.069      20           
   3205000  -2478.6577      21.102209     -2499.7599      1.360611       227.69009      319.53552      311.43312      303.3          339.79815      55089.352      15599.922      26           
   3206000  -2479.7472      19.833517     -2499.5807      1.360611       214.00107      276.52677      293.91978      286.77867      313.95076      56707.778      16058.22       21           
   3207000  -2478.9174      20.574348     -2499.4917      1.360611       221.99454      268.65991      290.74122      325.4347       297.64788      56481.132      15994.04       15           
   3208000  -2479.4759      20.21713      -2499.6931      1.360611       218.1402       318.81543      309.25621      281.28541      289.99665      55854.547      15816.606      17           
   3209000  -2479.9097      20.156525     -2500.0662      1.360611       217.48628      249.63736      297.92425      298.89634      301.77441      57252.914      16212.589      18           
   3210000  -2480.0128      20.251547     -2500.2643      1.360611       218.51156      411.94579      298.53755      289.50463      278.98988      55333.026      15668.925      22           
   3211000  -2479.5915      21.217308     -2500.8088      1.360611       228.93199      382.40659      317.79204      303.22894      274.06753      57110.131      16172.157      26           
   3212000  -2478.7192      20.618368     -2499.3376      1.360611       222.4695       324.77913      302.12845      308.27395      282.71211      55566.802      15735.124      22           
   3213000  -2481.2507      19.709991     -2500.9607      1.360611       212.66823      285.69585      293.8821       287.01315      285.33944      57237.698      16208.28       22           
   3214000  -2480.6297      20.44424      -2501.0739      1.360611       220.59069      337.34819      294.59027      305.53064      305.95922      56606.094      16029.426      25           
   3215000  -2480.9272      20.181825     -2501.109       1.360611       217.75927      450.87914      283.99817      300.52272      290.57151      56334.037      15952.386      23           
   3216000  -2480.1222      19.834638     -2499.9569      1.360611       214.01317      206.19436      277.89827      322.69856      286.37045      57147.403      16182.711      18           
   3217000  -2479.637       19.361109     -2498.9981      1.360611       208.90385      280.99875      276.52652      296.57963      294.44744      55780.511      15795.641      20           
   3218000  -2480.2197      19.615682     -2499.8354      1.360611       211.65065      269.42858      298.70213      277.19896      286.90253      55697.736      15772.202      19           
   3219000  -2480.9516      20.099911     -2501.0515      1.360611       216.87542      256.18136      297.48239      301.01755      285.58574      55442.046      15699.797      22           
   3220000  -2481.2675      19.895103     -2501.1626      1.360611       214.66557      357.94801      297.19788      279.85914      295.55523      56483.372      15994.674      21           
   3221000  -2482.3154      18.750376     -2501.0658      1.360611       202.31411      398.52128      248.8411       292.58714      334.18605      56440.378      15982.499      19           
   3222000  -2480.6117      19.523        -2500.1347      1.360611       210.65063      303.70508      282.35691      282.75418      336.77938      56326.089      15950.135      19           
   3223000  -2480.6169      20.045963     -2500.6628      1.360611       216.29334      341.65814      274.53643      312.88141      334.52158      55175.246      15624.245      21           
   3224000  -2478.6382      21.595486     -2500.2337      1.360611       233.01248      249.58592      316.58599      326.24018      322.47714      55402.879      15688.706      19           
   3225000  -2477.4978      20.568563     -2498.0664      1.360611       221.93212      296.95016      305.1383       299.3028       308.95209      56824.166      16091.178      18           
   3226000  -2479.7617      19.904666     -2499.6664      1.360611       214.76875      248.70456      302.93342      278.68266      311.67655      56387.229      15967.449      17           
   3227000  -2479.569       19.213066     -2498.7821      1.360611       207.30648      367.32142      273.88745      289.67563      286.31306      55965.887      15848.135      15           
   3228000  -2479.933       20.059917     -2499.9929      1.360611       216.44389      279.88489      311.27382      267.6509       321.82596      55869.339      15820.795      17           
   3229000  -2478.3668      20.450617     -2498.8174      1.360611       220.6595       330.53552      318.0511       271.30056      312.57422      55796.15       15800.07       21           
   3230000  -2478.1293      21.181058     -2499.3103      1.360611       228.54086      294.74887      324.14681      292.14378      329.68137      56130.599      15894.778      19           
   3231000  -2479.3313      20.318628     -2499.6499      1.360611       219.23535      318.29381      293.33296      293.37367      361.36534      55456.879      15703.997      25           
   3232000  -2480.7447      19.890976     -2500.6356      1.360611       214.62104      317.45469      289.10425      278.37502      380.22324      56964.072      16130.796      21           
   3233000  -2479.0359      20.71333      -2499.7492      1.360611       223.49414      268.7617       316.96451      280.20701      368.57575      56683.577      16051.367      24           
   3234000  -2480.4855      20.444956     -2500.9304      1.360611       220.59842      341.725        291.9385       304.80964      332.09659      56183.779      15909.837      21           
   3235000  -2478.9782      21.289531     -2500.2677      1.360611       229.71127      316.94953      329.87088      287.2833       324.70639      55975.862      15850.96       22           
   3236000  -2478.3685      21.7675       -2500.136       1.360611       234.8685       251.41002      325.75762      322.68411      316.47364      56342.593      15954.809      24           
   3237000  -2480.293       20.474404     -2500.7675      1.360611       220.91615      287.0495       311.91756      289.7419       293.49914      56363.666      15960.776      20           
   3238000  -2478.9603      20.656817     -2499.6171      1.360611       222.88437      335.4693       305.40061      297.21003      315.15311      55577.152      15738.055      23           
   3239000  -2478.5423      20.60841      -2499.1507      1.360611       222.36206      295.73189      303.52925      302.11988      320.11828      56633.529      16037.195      29           
   3240000  -2477.3121      21.671543     -2498.9836      1.360611       233.83312      265.47291      335.75087      302.05622      319.81599      55190.699      15628.621      25           
   3241000  -2477.7233      21.134146     -2498.8575      1.360611       228.03469      293.24695      307.21792      312.69454      342.01028      56605.364      16029.219      21           
   3242000  -2479.0351      21.122184     -2500.1573      1.360611       227.90561      420.46792      320.82363      284.21199      314.98303      55419.782      15693.492      22           
   3243000  -2477.8322      21.753609     -2499.5858      1.360611       234.71861      330.04746      312.59276      324.41445      352.99175      56528.061      16007.329      23           
   3244000  -2480.527       20.588611     -2501.1156      1.360611       222.14843      368.12635      297.04338      291.84467      363.92088      55352.689      15674.493      24           
   3245000  -2478.9622      20.897725     -2499.86        1.360611       225.48373      238.88059      314.09399      295.741        364.79339      56253.664      15929.626      25           
   3246000  -2478.0196      21.481333     -2499.5009      1.360611       231.78079      226.242        316.89598      317.02966      353.81626      55931.263      15838.33       20           
   3247000  -2479.0647      22.020938     -2501.0857      1.360611       237.60305      329.72813      317.57199      325.69682      364.78195      55816.692      15805.887      23           
   3248000  -2478.9511      20.702108     -2499.6532      1.360611       223.37305      301.19888      285.04164      324.40868      353.92047      56915.893      16117.153      23           
   3249000  -2479.3905      20.967301     -2500.3578      1.360611       226.23445      330.65487      291.15005      322.54554      355.40271      55230.892      15640.003      25           
   3250000  -2479.2244      20.700233     -2499.9246      1.360611       223.35282      317.15446      308.40536      281.13028      383.26328      56433.643      15980.592      17           
   3251000  -2479.8307      20.606186     -2500.4369      1.360611       222.33807      342.7528       287.05759      309.46456      372.41786      54847.385      15531.404      22           
   3252000  -2480.9554      19.344609     -2500.3         1.360611       208.72582      357.85813      277.55652      273.94758      346.24542      56607.974      16029.958      26           
   3253000  -2478.7166      20.687703     -2499.4043      1.360611       223.21762      349.17132      279.72579      322.1685       369.76542      55870.731      15821.189      19           
   3254000  -2478.9934      20.367131     -2499.3606      1.360611       219.75869      319.76912      273.81395      322.90628      361.10428      55852.904      15816.141      21           
   3255000  -2479.165       21.137042     -2500.302       1.360611       228.06593      292.09611      311.83612      301.37562      364.77957      55862.062      15818.735      21           
   3256000  -2480.1577      20.81051      -2500.9682      1.360611       224.54269      299.84479      302.43093      297.40901      389.57881      56461.268      15988.415      24           
   3257000  -2479.9842      19.75085      -2499.735       1.360611       213.1091       270.5581       289.67962      282.09702      360.51733      57707.127      16341.211      26           
   3258000  -2478.6005      20.406296     -2499.0068      1.360611       220.18128      217.38073      295.42913      308.83655      353.33178      54721.357      15495.715      26           
   3259000  -2480.1574      20.122452     -2500.2799      1.360611       217.11864      317.59743      296.9276       278.9002       368.00174      56566.053      16018.087      24           
   3260000  -2479.2269      20.915728     -2500.1426      1.360611       225.67799      197.73866      315.81299      292.01484      388.75749      55523.803      15722.948      21           
   3261000  -2480.014       20.745004     -2500.759       1.360611       223.83589      393.26858      305.21548      282.69793      372.99362      56843.841      16096.75       25           
   3262000  -2478.8032      21.39082      -2500.1941      1.360611       230.80416      352.73836      300.34344      323.79056      358.3531       57516.249      16287.159      26           
   3263000  -2479.3748      19.919311     -2499.2941      1.360611       214.92677      263.53143      285.15607      300.71659      338.33297      54763.366      15507.611      24           
   3264000  -2480.494       18.775828     -2499.2698      1.360611       202.58874      350.14978      268.39166      268.7084       335.75053      56367.454      15961.849      23           
   3265000  -2477.6614      20.761513     -2498.4229      1.360611       224.01402      328.53036      304.00259      302.84073      320.14855      55458.167      15704.362      27           
   3266000  -2478.9989      20.791324     -2499.7902      1.360611       224.33568      278.58715      312.905        297.50187      319.71167      57270.149      16217.47       24           
   3267000  -2477.4266      21.540632     -2498.9672      1.360611       232.42062      269.37828      327.69315      308.61088      315.13603      55830.97       15809.93       24           
   3268000  -2478.4878      21.55558      -2500.0433      1.360611       232.5819       248.62693      331.01884      296.63557      366.16089      56226.703      15921.992      24           
   3269000  -2479.4703      19.947451     -2499.4177      1.360611       215.2304       247.38244      303.62946      263.40945      411.47027      55056.426      15590.599      26           
   3270000  -2479.6418      20.926179     -2500.5679      1.360611       225.79075      336.53579      307.53846      287.37266      397.95105      57064.782      16159.315      22           
   3271000  -2479.7188      20.283711     -2500.0025      1.360611       218.8586       379.79864      281.24182      296.92494      380.17641      55891.588      15827.096      29           
   3272000  -2479.4344      20.86826      -2500.3027      1.360611       225.16581      310.4576       307.14421      294.51761      379.81752      55636.005      15754.721      30           
   3273000  -2479.5908      19.884854     -2499.4757      1.360611       214.55498      311.73073      282.4661       292.95653      365.91914      56688.966      16052.893      26           
   3274000  -2478.6074      20.41512      -2499.0226      1.360611       220.27649      313.79256      303.94722      285.47432      353.10457      55870.659      15821.169      28           
   3275000  -2479.0827      20.070688     -2499.1534      1.360611       216.56011      270.2766       302.91767      276.59197      358.0453       57274.861      16218.804      27           
   3276000  -2479.4433      19.667224     -2499.1106      1.360611       212.20678      295.63036      294.91806      265.10063      365.91802      55310.08       15662.427      22           
   3277000  -2478.5798      20.892067     -2499.4719      1.360611       225.42268      215.78983      295.49119      323.29316      359.84929      55814.959      15805.396      19           
   3278000  -2480.0416      20.953735     -2500.9953      1.360611       226.08807      226.77862      300.53649      315.13621      378.72796      55496.641      15715.256      22           
   3279000  -2478.0382      20.405464     -2498.4436      1.360611       220.1723       293.93484      299.79629      290.03309      374.64732      55393.686      15686.102      29           
   3280000  -2478.6304      20.781047     -2499.4114      1.360611       224.22479      229.63199      304.90639      302.44649      385.10346      56436.819      15981.491      24           
   3281000  -2478.1217      21.59544      -2499.7172      1.360611       233.01198      239.93923      328.0119       302.69174      374.96538      55567.554      15735.337      25           
   3282000  -2480.4937      19.872453     -2500.3661      1.360611       214.42118      201.07208      290.92266      292.6          361.10596      55908.281      15831.823      23           
   3283000  -2479.7428      20.66051      -2500.4033      1.360611       222.92421      232.82666      316.52405      285.13397      361.262        54840.537      15529.464      26           
   3284000  -2480.3785      19.87589      -2500.2544      1.360611       214.45826      259.65189      278.99007      301.63118      376.87099      56233.179      15923.826      26           
   3285000  -2479.4061      19.807822     -2499.2139      1.360611       213.72382      217.34937      281.71136      296.93764      390.98473      54141.205      15331.431      27           
   3286000  -2479.2013      21.502249     -2500.7036      1.360611       232.00647      252.51827      326.92277      295.08465      392.08636      57475.958      16275.749      24           
   3287000  -2479.0318      21.02026      -2500.0521      1.360611       226.80587      360.95297      317.2574       282.09583      361.06846      54953.587      15561.477      22           
   3288000  -2478.8173      21.083236     -2499.9005      1.360611       227.48537      341.74522      301.6265       304.4833       393.10681      56590.454      16024.997      24           
   3289000  -2480.6769      19.851135     -2500.528       1.360611       214.19116      261.68597      280.57146      291.8392       396.8387       55525.802      15723.514      21           
   3290000  -2480.5108      19.332844     -2499.8436      1.360611       208.59887      271.52681      274.23898      280.54264      385.64826      56274.979      15935.662      20           
   3291000  -2478.4023      19.88097      -2498.2833      1.360611       214.51308      238.48139      287.40203      288.84057      376.8735       55957.737      15845.827      20           
   3292000  -2478.3117      21.27404      -2499.5858      1.360611       229.54412      267.17716      294.89364      334.53359      378.35407      55718.677      15778.132      26           
   3293000  -2478.0622      20.573577     -2498.6358      1.360611       221.98622      270.75455      295.94057      306.74485      365.05346      56235.261      15924.415      27           
   3294000  -2478.7059      20.004065     -2498.71        1.360611       215.84125      337.24549      279.65967      296.96381      367.41021      55813.127      15804.877      29           
   3295000  -2479.869       21.288949     -2501.1579      1.360611       229.70498      289.64562      303.50009      317.67342      384.61195      56605.301      16029.201      23           
   3296000  -2480.0283      21.1884       -2501.2167      1.360611       228.62008      272.42386      304.63861      312.38365      397.26706      54101.11       15320.077      26           
   3297000  -2477.9799      21.702987     -2499.6829      1.360611       234.1724       320.38429      306.58112      327.6283       382.73886      57321.187      16231.922      30           
   3298000  -2479.7039      20.543476     -2500.2474      1.360611       221.66143      302.91662      289.39499      313.86697      349.58851      54952.487      15561.166      27           
   3299000  -2480.5516      19.878978     -2500.4306      1.360611       214.49159      252.13177      297.60449      280.10256      354.36398      56865.048      16102.755      25           
   3300000  -2479.6137      20.373058     -2499.9867      1.360611       219.82264      305.15117      288.44078      310.42101      334.68532      55716.018      15777.378      24           
   3301000  -2479.485       20.497089     -2499.9821      1.360611       221.16093      262.80537      302.05922      301.74224      329.95739      56261.442      15931.829      26           
   3302000  -2479.5197      21.10394      -2500.6236      1.360611       227.70876      296.42238      296.77493      333.06439      315.81735      57182.942      16192.775      28           
   3303000  -2478.7942      21.111856     -2499.906       1.360611       227.79417      261.23118      306.14454      320.39388      335.21391      55538.273      15727.046      26           
   3304000  -2478.4513      22.341122     -2500.7924      1.360611       241.05779      344.36298      316.61331      346.53225      325.66051      56022.555      15864.182      25           
   3305000  -2479.5826      20.554013     -2500.1367      1.360611       221.77513      250.91171      310.06673      299.16944      302.86967      54935.084      15556.238      26           
   3306000  -2478.6579      20.544407     -2499.2023      1.360611       221.67147      292.71966      307.20158      296.21986      310.28631      57620.37       16316.643      27           
   3307000  -2479.2926      21.354116     -2500.6467      1.360611       230.40813      298.81268      316.66424      312.09278      326.50869      55415.707      15692.338      28           
   3308000  -2479.4673      20.813273     -2500.2806      1.360611       224.57251      322.82734      301.44105      308.58817      327.18547      57593.229      16308.958      30           
   3309000  -2479.8768      19.745938     -2499.6227      1.360611       213.0561       229.1227       281.53769      307.77487      326.43001      56378.553      15964.992      28           
   3310000  -2480.1183      19.450573     -2499.5689      1.360611       209.86916      267.03103      278.93187      299.56564      291.57978      56209.181      15917.03       26           
   3311000  -2480.52        19.875609     -2500.3956      1.360611       214.45523      190.52678      294.65141      306.62767      281.16891      56103.588      15887.129      27           
   3312000  -2481.1512      18.975251     -2500.1264      1.360611       204.74049      274.04392      272.55205      291.00259      278.80584      55147.784      15616.469      28           
   3313000  -2480.3475      20.535398     -2500.8829      1.360611       221.57428      240.00719      311.63705      304.7832       266.69645      57859.51       16384.362      31           
   3314000  -2479.2955      20.200612     -2499.4961      1.360611       217.96197      284.64178      297.71879      302.60124      277.55885      55847.243      15814.538      36           
   3315000  -2478.4379      21.039073     -2499.477       1.360611       227.00886      318.68799      308.60111      309.75267      315.56017      55615.995      15749.054      38           
   3316000  -2480.2871      20.592196     -2500.8793      1.360611       222.18712      283.15786      319.50863      278.57107      327.12939      55488.667      15712.998      28           
   3317000  -2479.754       21.044321     -2500.7983      1.360611       227.06548      271.31507      331.39542      285.10315      309.56661      56257.926      15930.833      32           
   3318000  -2479.4708      20.117383     -2499.5882      1.360611       217.06395      287.97511      297.26506      296.11269      300.61889      55498.504      15715.784      34           
   3319000  -2479.4179      20.395676     -2499.8136      1.360611       220.06669      252.39799      301.04147      311.32995      272.90632      55755.898      15788.672      27           
   3320000  -2479.0476      21.003878     -2500.0514      1.360611       226.62911      290.08419      314.46419      313.23766      262.49478      55878.706      15823.448      30           
   3321000  -2478.3762      21.308347     -2499.6845      1.360611       229.91429      281.1695       293.5815       357.76157      262.71743      55786.364      15797.299      30           
   3322000  -2480.3273      19.824734     -2500.152       1.360611       213.9063       250.98389      298.3982       290.33801      281.61059      56170.257      15906.008      26           
   3323000  -2479.3377      20.031603     -2499.3693      1.360611       216.13838      292.92959      302.91212      288.99428      268.86854      54831.498      15526.905      26           
   3324000  -2480.6774      19.535761     -2500.2132      1.360611       210.78832      209.98399      280.43567      298.89957      332.67835      56713.231      16059.764      23           
   3325000  -2479.0621      20.859476     -2499.9216      1.360611       225.07103      317.57106      299.74728      312.53278      330.1467       55682.844      15767.984      16           
   3326000  -2478.275       21.038097     -2499.3131      1.360611       226.99833      345.02766      305.65835      312.90805      313.07351      57381.694      16249.056      16           
   3327000  -2477.516       20.982563     -2498.4986      1.360611       226.39912      214.29106      316.98296      305.95142      312.94631      56070.614      15877.791      19           
   3328000  -2479.6519      19.335084     -2498.987       1.360611       208.62304      247.41956      301.49033      264.05201      286.02799      55731.237      15781.688      20           
   3329000  -2477.9565      20.302135     -2498.2586      1.360611       219.0574       293.80888      320.62864      269.10459      293.88402      56275.038      15935.679      20           
   3330000  -2477.7841      19.840756     -2497.6248      1.360611       214.07918      204.27147      305.07841      282.7283       291.56037      55725.09       15779.948      20           
   3331000  -2477.5058      21.538532     -2499.0444      1.360611       232.39796      316.40791      312.3195       331.68482      286.54485      56952.05       16127.392      20           
   3332000  -2478.4642      20.576414     -2499.0407      1.360611       222.01683      293.18987      292.551        316.36838      318.33947      55595.149      15743.152      17           
   3333000  -2479.4769      19.992316     -2499.4692      1.360611       215.71449      327.69361      292.2488       288.52649      322.56477      56356.038      15958.616      18           
   3334000  -2479.1509      20.402331     -2499.5533      1.360611       220.1385       284.63308      298.36413      299.80396      327.96566      54953.24       15561.379      24           
   3335000  -2480.4865      20.198122     -2500.6847      1.360611       217.93511      298.47949      276.96127      321.93782      323.24884      56483.107      15994.599      20           
   3336000  -2479.6238      19.311237     -2498.935       1.360611       208.36573      317.04032      284.90501      269.53344      336.18269      55366.795      15678.487      20           
   3337000  -2476.8216      21.97763      -2498.7992      1.360611       237.13577      323.31838      314.90853      334.73085      335.53859      57115.028      16173.543      21           
   3338000  -2478.2269      20.897852     -2499.1248      1.360611       225.48511      278.86999      295.4764       317.83174      364.54415      57071.629      16161.253      22           
   3339000  -2478.4071      20.687014     -2499.0942      1.360611       223.21018      285.48409      300.89956      298.25212      367.05376      56202.837      15915.233      19           
   3340000  -2477.6401      22.044155     -2499.6842      1.360611       237.85357      343.04432      326.49243      312.37365      365.90164      56234.506      15924.201      28           
   3341000  -2477.9508      21.076078     -2499.0269      1.360611       227.40814      237.61547      312.32679      310.87433      342.09048      55913.379      15833.266      24           
   3342000  -2478.1662      21.477571     -2499.6438      1.360611       231.74019      227.36732      327.18654      304.69168      362.74876      56026.649      15865.341      27           
   3343000  -2479.0188      21.115385     -2500.1342      1.360611       227.83225      353.69342      327.96019      277.11921      329.20814      55846.063      15814.204      28           
   3344000  -2476.754       22.258842     -2499.0129      1.360611       240.17001      356.33497      305.87239      359.5177       313.64408      56537.895      16010.114      26           
   3345000  -2478.3842      21.150936     -2499.5351      1.360611       228.21584      313.27243      316.11264      304.26201      315.23984      55639.837      15755.806      25           
   3346000  -2479.6911      20.574462     -2500.2656      1.360611       221.99577      259.8299       321.59865      278.76515      319.66872      56457.074      15987.227      26           
   3347000  -2477.7277      20.86386      -2498.5916      1.360611       225.11833      367.72712      289.5676       319.94671      329.75984      54981.455      15569.369      29           
   3348000  -2479.8301      19.483765     -2499.3139      1.360611       210.22729      300.16191      278.29126      293.6531       311.4931       55910.03       15832.318      26           
   3349000  -2480.4482      20.508609     -2500.9568      1.360611       221.28522      389.92031      279.73363      319.21679      325.60204      56025.543      15865.028      27           
   3350000  -2480.2678      19.116062     -2499.3838      1.360611       206.25982      317.50819      271.59588      281.62598      336.08629      57536.053      16292.767      22           
   3351000  -2479.5706      20.188282     -2499.7589      1.360611       217.82894      221.38379      311.49354      278.89165      326.3805       56179.318      15908.573      21           
   3352000  -2478.5711      21.842704     -2500.4139      1.360611       235.67993      288.64377      319.36495      332.28883      311.88322      54710.9        15492.754      28           
   3353000  -2477.5915      20.542284     -2498.1338      1.360611       221.64857      341.02523      283.00797      329.34617      293.33038      56555.699      16015.155      22           
   3354000  -2479.3132      19.513673     -2498.8268      1.360611       210.54999      323.83217      290.69326      274.05196      309.27822      56160.46       15903.233      26           
   3355000  -2478.8204      20.366511     -2499.1869      1.360611       219.752        217.57692      291.25977      317.22599      332.81506      57604.269      16312.084      25           
   3356000  -2477.3398      21.220018     -2498.5599      1.360611       228.96123      285.6866       289.79823      345.54016      332.74825      54691.651      15487.303      23           
   3357000  -2480.1803      19.914787     -2500.0951      1.360611       214.87796      328.01349      290.33343      277.9034       368.08986      56175.626      15907.528      22           
   3358000  -2479.1228      20.777285     -2499.9001      1.360611       224.1842       285.64116      311.38662      290.34849      353.00683      55525.633      15723.466      20           
   3359000  -2481.0149      20.06708      -2501.082       1.360611       216.52118      300.40304      294.31624      284.01618      362.75313      57071.786      16161.298      23           
   3360000  -2480.1383      20.14652      -2500.2848      1.360611       217.37833      338.59862      288.55251      293.46394      352.32433      55064.798      15592.969      24           
   3361000  -2480.7138      19.664067     -2500.3778      1.360611       212.17272      281.8828       283.60491      287.1632       367.99999      55785.587      15797.079      30           
   3362000  -2479.8986      20.375692     -2500.2742      1.360611       219.85107      280.00158      284.07745      315.61047      370.6113       56864.779      16102.679      30           
   3363000  -2479.2132      20.449016     -2499.6622      1.360611       220.64222      301.19988      294.69667      302.22197      356.97552      56546.397      16012.521      32           
   3364000  -2479.5392      20.774047     -2500.3133      1.360611       224.14926      322.80275      291.7336       319.44197      337.81914      55945.604      15842.391      32           
   3365000  -2481.0987      19.774038     -2500.8727      1.360611       213.35929      309.58468      283.76724      293.41594      330.99198      55612.752      15748.136      29           
   3366000  -2479.2274      20.849158     -2500.0766      1.360611       224.9597       341.45853      308.41301      298.87659      312.36707      56336.806      15953.17       33           
   3367000  -2478.9026      20.195968     -2499.0986      1.360611       217.91187      275.99544      306.60358      284.86919      310.23788      55786.424      15797.316      26           
   3368000  -2478.2067      19.880945     -2498.0876      1.360611       214.51281      230.41624      299.45399      288.92265      314.76583      57535.151      16292.511      29           
   3369000  -2478.7559      21.412307     -2500.1682      1.360611       231.036        248.52306      328.79217      301.25932      342.7508       55163.706      15620.978      29           
   3370000  -2480.1712      20.055101     -2500.2263      1.360611       216.39192      230.99144      304.06751      284.98095      338.97568      55617.126      15749.375      29           
   3371000  -2480.0717      19.290495     -2499.3622      1.360611       208.14193      234.23723      293.11852      272.04473      313.84887      56932.704      16121.913      25           
   3372000  -2479.8415      20.345622     -2500.1871      1.360611       219.52661      254.13299      281.47317      328.68896      323.2287       56598.687      16027.328      27           
   3373000  -2478.8033      20.604092     -2499.4074      1.360611       222.31547      262.20855      313.71089      287.50838      351.55349      56331.953      15951.796      31           
   3374000  -2480.3889      19.919209     -2500.3081      1.360611       214.92567      289.25718      303.09397      274.04312      325.12299      56004.6        15859.098      25           
   3375000  -2481.2381      19.621335     -2500.8595      1.360611       211.71165      206.66974      295.89411      284.91603      317.24652      57442.792      16266.358      26           
   3376000  -2479.8449      20.964787     -2500.8097      1.360611       226.20732      345.81475      316.72176      301.41518      251.61465      56367.212      15961.78       31           
   3377000  -2480.7996      19.308958     -2500.1086      1.360611       208.34114      335.85136      298.06754      263.48501      249.2061       55702.109      15773.44       29           
   3378000  -2479.1587      21.320178     -2500.4789      1.360611       230.04195      397.81884      313.29397      312.80572      256.60145      55773.909      15793.772      29           
   3379000  -2479.7461      20.359881     -2500.1059      1.360611       219.68046      409.33282      298.50249      297.69597      258.24414      56147.393      15899.533      23           
   3380000  -2479.4766      20.881555     -2500.3581      1.360611       225.30926      379.28675      295.20892      323.56378      264.65716      56754.422      16071.429      28           
   3381000  -2478.88        20.149348     -2499.0294      1.360611       217.40884      306.60925      286.37744      309.80678      301.87869      54073.979      15312.394      30           
   3382000  -2478.4275      21.241479     -2499.669       1.360611       229.1928       296.54077      308.1334       324.1452       302.89067      57205.383      16199.129      23           
   3383000  -2479.1571      21.530089     -2500.6872      1.360611       232.30685      280.66318      308.51889      333.44848      326.4927       54777.721      15511.676      27           
   3384000  -2478.3912      21.287693     -2499.6789      1.360611       229.69143      393.81169      299.36799      318.26847      340.70701      56821.85       16090.522      29           
   3385000  -2477.9655      21.333363     -2499.2988      1.360611       230.18421      342.7519       313.21672      308.79713      333.68155      55622.742      15750.965      26           
   3386000  -2478.7285      20.79261      -2499.5211      1.360611       224.34955      306.08593      296.56018      323.75736      291.11001      56577.234      16021.253      27           
   3387000  -2477.8247      21.697586     -2499.5223      1.360611       234.11412      237.28204      317.09201      339.89246      282.50262      55862.348      15818.816      20           
   3388000  -2478.374       21.412933     -2499.7869      1.360611       231.04276      343.48955      318.76646      314.96985      276.88548      55016.168      15579.199      24           
   3389000  -2478.2478      20.382816     -2498.6307      1.360611       219.92793      204.62767      317.72618      293.36546      275.31355      56269.627      15934.147      28           
   3390000  -2479.441       20.392875     -2499.8339      1.360611       220.03647      218.07228      319.89785      287.67568      274.84604      54572.699      15453.619      26           
   3391000  -2478.3017      21.710209     -2500.0119      1.360611       234.25033      345.34213      329.23555      312.51037      262.14659      57681.759      16334.027      30           
   3392000  -2477.6996      20.813897     -2498.5135      1.360611       224.57924      299.39202      325.8945       285.04759      277.85233      54214.392      15352.156      26           
   3393000  -2480.0401      19.509714     -2499.5498      1.360611       210.50728      264.67429      299.19132      272.56824      291.5896       57631.878      16319.902      26           
   3394000  -2479.7436      19.632475     -2499.3761      1.360611       211.83185      250.99414      285.5477       298.94718      292.39557      55501.62       15716.666      24           
   3395000  -2478.5486      21.047531     -2499.5961      1.360611       227.10012      277.28275      326.10781      295.70773      284.96565      56428.677      15979.186      26           
   3396000  -2480.5456      20.640528     -2501.1861      1.360611       222.70861      353.65431      313.603        289.96938      273.67078      55364.531      15677.846      24           
   3397000  -2480.0144      19.831101     -2499.8455      1.360611       213.975        282.08057      292.49898      296.77884      273.67563      55364.43       15677.818      25           
   3398000  -2479.4941      20.338064     -2499.8321      1.360611       219.44506      313.67319      296.8123       309.35299      264.00539      57128.352      16177.316      25           
   3399000  -2480.2852      19.639073     -2499.9243      1.360611       211.90304      261.40699      304.24435      277.08807      257.71376      54299.365      15376.218      29           
   3400000  -2479.5798      20.166194     -2499.746       1.360611       217.5906       282.77518      289.29018      321.19896      240.88049      56884.123      16108.156      27           
   3401000  -2479.0796      20.651948     -2499.7316      1.360611       222.83183      341.99817      301.58595      308.49716      260.34651      54261.196      15365.41       33           
   3402000  -2480.6069      20.044998     -2500.6519      1.360611       216.28292      328.96728      294.14065      293.63177      285.36428      57208.872      16200.117      30           
   3403000  -2479.5833      20.348919     -2499.9323      1.360611       219.56218      312.16848      304.68255      289.27067      309.91876      54121.105      15325.739      26           
   3404000  -2479.1843      20.362516     -2499.5468      1.360611       219.70889      329.07464      284.86995      323.49929      270.28538      56860.202      16101.383      28           
   3405000  -2479.1963      20.858357     -2500.0546      1.360611       225.05895      288.31652      302.30766      322.38791      280.32017      55776.536      15794.516      26           
   3406000  -2481.1802      18.745611     -2499.9258      1.360611       202.2627       211.64367      286.41085      277.1816       241.41097      55499.527      15716.074      30           
   3407000  -2478.6463      21.138313     -2499.7846      1.360611       228.07964      263.48316      334.01256      296.4992       245.54958      55905.332      15830.987      26           
   3408000  -2478.9479      20.823738     -2499.7716      1.360611       224.68542      379.57791      301.13012      315.57458      247.37964      54747.974      15503.253      28           
   3409000  -2479.8574      20.988021     -2500.8455      1.360611       226.45801      302.04395      316.53839      307.14002      267.29513      56497.433      15998.656      30           
   3410000  -2478.3184      20.724921     -2499.0433      1.360611       223.61921      353.54256      291.16598      324.63705      282.82996      55036.576      15584.978      25           
   3411000  -2480.3434      19.94486      -2500.2882      1.360611       215.20244      368.19424      290.55431      283.60669      317.56552      57307.768      16228.122      29           
   3412000  -2480.2968      19.644397     -2499.9412      1.360611       211.96048      267.99485      297.49443      276.27279      308.31208      54851.325      15532.519      22           
   3413000  -2480.1404      19.580378     -2499.7208      1.360611       211.26973      324.46642      292.15663      279.66544      285.37957      56287.379      15939.174      23           
   3414000  -2479.6189      20.513983     -2500.1329      1.360611       221.34321      218.13799      301.24492      318.45643      276.48111      56502.757      16000.163      22           
   3415000  -2476.9491      21.041326     -2497.9904      1.360611       227.03317      255.84296      305.17523      325.9626       297.32246      55353.757      15674.795      22           
   3416000  -2478.5532      20.852573     -2499.4058      1.360611       224.99655      291.92725      305.90033      310.34638      311.58615      56781.944      16079.222      24           
   3417000  -2478.9849      20.108597     -2499.0935      1.360611       216.96915      250.47088      290.99835      305.9023       318.8869       55146.698      15616.161      26           
   3418000  -2479.1269      20.117779     -2499.2447      1.360611       217.06822      256.50086      296.44786      293.73417      333.15907      56344.949      15955.476      24           
   3419000  -2480.2812      19.607328     -2499.8885      1.360611       211.56051      350.21318      283.5362       281.45621      330.78327      55085.678      15598.882      21           
   3420000  -2480.2935      19.953295     -2500.2468      1.360611       215.29346      233.70603      296.13052      291.13607      317.93691      55514.93       15720.435      19           
   3421000  -2478.7916      20.425349     -2499.217       1.360611       220.38686      347.59944      281.67023      322.51635      312.13931      54946.395      15559.44       18           
   3422000  -2479.265       20.216831     -2499.4819      1.360611       218.13698      288.12186      308.19663      284.10256      296.57972      55520.415      15721.989      20           
   3423000  -2480.309       18.929269     -2499.2382      1.360611       204.24435      267.39471      288.46349      262.98379      293.10633      56858.066      16100.778      20           
   3424000  -2479.8844      19.628204     -2499.5126      1.360611       211.78577      243.42772      281.73742      296.46637      327.07351      55559.835      15733.151      19           
   3425000  -2479.2372      20.626493     -2499.8637      1.360611       222.55717      334.74363      294.9753       308.97561      326.87955      57299.6        16225.809      22           
   3426000  -2479.0258      20.897371     -2499.9231      1.360611       225.47992      287.87107      323.62612      283.03048      327.33169      55383.903      15683.332      22           
   3427000  -2479.2394      19.834556     -2499.074       1.360611       214.01228      272.07011      302.6292       271.79524      325.65065      56766.112      16074.739      20           
   3428000  -2477.7213      21.118276     -2498.8395      1.360611       227.86345      354.25841      311.13968      295.51818      363.51405      56037.419      15868.391      20           
   3429000  -2478.7381      21.603933     -2500.3421      1.360611       233.10363      398.47968      309.26439      319.6675       329.90655      56847.733      16097.852      24           
   3430000  -2479.1732      20.995214     -2500.1684      1.360611       226.53563      339.63703      311.04386      302.89331      313.312        55876.492      15822.821      21           
   3431000  -2479.2116      20.480636     -2499.6922      1.360611       220.98339      338.45093      304.61178      291.80999      310.80353      55671.965      15764.904      21           
   3432000  -2477.9267      20.880252     -2498.8069      1.360611       225.2952       278.91708      301.51783      316.10599      326.43674      56916.393      16117.295      22           
   3433000  -2479.242       20.053563     -2499.2955      1.360611       216.37533      269.68379      303.08707      286.47266      301.61645      54842.237      15529.946      25           
   3434000  -2478.4393      20.327808     -2498.7672      1.360611       219.3344       289.28197      311.52281      285.42301      291.10717      55904.707      15830.811      30           
   3435000  -2477.7315      20.137841     -2497.8694      1.360611       217.28468      286.84027      299.01024      291.20541      317.26935      54416.374      15409.352      29           
   3436000  -2478.6814      19.686823     -2498.3682      1.360611       212.41826      321.13697      289.5384       285.55731      297.71871      57271.302      16217.796      25           
   3437000  -2479.5695      20.650513     -2500.22        1.360611       222.81635      333.33705      283.23302      333.29223      294.61159      55154.605      15618.4        26           
   3438000  -2479.3471      20.547828     -2499.8949      1.360611       221.70839      371.7048       296.86456      307.6128       271.70295      56698.913      16055.71       27           
   3439000  -2479.1658      21.251784     -2500.4175      1.360611       229.30398      306.0411       332.09415      294.59942      261.2056       55596.647      15743.576      33           
   3440000  -2479.2977      20.894645     -2500.1924      1.360611       225.4505       339.61158      300.66674      320.94897      252.83767      56124.608      15893.081      35           
   3441000  -2480.7483      19.129433     -2499.8778      1.360611       206.40409      288.11196      282.7908       278.49166      288.64756      56213.361      15918.214      32           
   3442000  -2478.2576      19.891052     -2498.1487      1.360611       214.62186      281.77736      284.27492      314.39903      255.21863      56464.694      15989.385      27           
   3443000  -2480.7908      19.133796     -2499.9246      1.360611       206.45117      312.33462      279.55994      282.7103       266.53155      57307.012      16227.908      32           
   3444000  -2478.6042      20.715512     -2499.3197      1.360611       223.51768      336.0942       295.28185      322.15227      267.5738       54802.698      15518.749      28           
   3445000  -2480.4831      19.4471       -2499.9302      1.360611       209.83168      229.12515      299.51408      277.61992      276.65652      57041.65       16152.764      29           
   3446000  -2480.5428      19.67527      -2500.218       1.360611       212.29361      275.62594      298.01071      277.74082      303.12898      55675.226      15765.827      28           
   3447000  -2478.6752      20.624272     -2499.2994      1.360611       222.53321      209.65033      306.73011      309.27917      314.41397      55969.439      15849.141      24           
   3448000  -2479.4562      20.015891     -2499.4721      1.360611       215.96885      338.93902      293.83542      289.20252      300.67143      55858.302      15817.67       28           
   3449000  -2481.1024      19.813801     -2500.9162      1.360611       213.78833      267.15566      295.93136      290.47337      287.60756      56004.437      15859.051      28           
   3450000  -2479.7693      20.07105      -2499.8404      1.360611       216.56401      193.35066      316.30334      280.64203      287.59734      56765.876      16074.672      26           
   3451000  -2478.9646      20.821009     -2499.7856      1.360611       224.65598      305.48459      320.33331      296.13218      250.78246      55832.33       15810.315      32           
   3452000  -2480.4286      19.953782     -2500.3824      1.360611       215.29871      329.81818      290.58066      299.61779      253.8802       56953.256      16127.733      32           
   3453000  -2479.4372      20.487419     -2499.9246      1.360611       221.05658      305.94926      300.571        308.5805       266.7745       55319.497      15665.094      33           
   3454000  -2480.4346      20.036447     -2500.4711      1.360611       216.19066      300.36052      293.43813      303.22705      254.98735      56437.182      15981.594      34           
   3455000  -2479.677       20.055033     -2499.732       1.360611       216.39119      368.07371      282.51215      308.52803      276.90015      55217.205      15636.127      26           
   3456000  -2478.8215      19.800208     -2498.6217      1.360611       213.64167      421.59545      290.32873      278.9231       274.86873      57098.792      16168.946      27           
   3457000  -2480.1729      20.045475     -2500.2184      1.360611       216.28807      314.76831      308.21722      274.02247      290.63218      57021.101      16146.945      32           
   3458000  -2480.4166      19.670193     -2500.0868      1.360611       212.23883      321.49352      289.22638      281.3777       317.1906       55609.032      15747.083      31           
   3459000  -2479.1512      20.5768       -2499.728       1.360611       222.02099      303.82341      297.66357      309.07513      314.88435      55537.158      15726.73       31           
   3460000  -2479.0843      20.604907     -2499.6892      1.360611       222.32426      264.92588      299.73173      317.41148      290.85252      56002.078      15858.383      29           
   3461000  -2478.9894      20.127267     -2499.1167      1.360611       217.17059      277.83501      297.82298      298.64193      289.71458      56230.021      15922.931      26           
   3462000  -2477.9263      20.54481      -2498.4711      1.360611       221.67583      273.46981      303.93286      306.84572      290.31548      55006.224      15576.383      22           
   3463000  -2479.1543      20.549045     -2499.7034      1.360611       221.72152      330.34419      303.73501      304.92167      271.35892      56638.061      16038.478      23           
   3464000  -2480.3835      19.658346     -2500.0419      1.360611       212.11099      207.73958      290.80298      291.66405      313.93016      55430.329      15696.479      22           
   3465000  -2478.6545      20.89729      -2499.5517      1.360611       225.47904      293.26714      326.02338      283.75199      307.00754      56389.364      15968.053      25           
   3466000  -2478.4259      21.436311     -2499.8622      1.360611       231.295        342.52846      312.21862      319.56058      309.13451      55243.676      15643.623      23           
   3467000  -2478.7466      20.291456     -2499.0381      1.360611       218.94217      273.46599      287.96513      309.82835      336.7287       55402.292      15688.539      19           
   3468000  -2478.8844      20.155932     -2499.0404      1.360611       217.47989      381.65251      279.61865      303.55934      346.90854      56513.146      16003.105      22           
   3469000  -2479.5196      19.942693     -2499.4623      1.360611       215.17906      339.89993      272.98571      308.48526      348.05055      55697.91       15772.251      27           
   3470000  -2479.4424      20.154175     -2499.5966      1.360611       217.46092      294.29566      295.40292      292.72937      334.41639      56157.999      15902.536      28           
   3471000  -2479.3982      19.80213      -2499.2003      1.360611       213.66241      307.98299      283.84759      295.35547      324.1047       54932.528      15555.514      21           
   3472000  -2479.1814      20.647501     -2499.8289      1.360611       222.78385      190.35179      299.48445      319.3653       335.01592      56653.573      16042.87       24           
   3473000  -2478.9718      20.241833     -2499.2136      1.360611       218.40674      260.8345       304.10248      289.269        329.83861      55395.797      15686.7        28           
   3474000  -2479.0785      19.704336     -2498.7828      1.360611       212.60722      388.69046      276.96097      291.87715      313.78476      56198.426      15913.984      27           
   3475000  -2479.8869      19.236863     -2499.1237      1.360611       207.56324      375.56698      264.1354       292.96883      330.10604      56088.047      15882.728      18           
   3476000  -2479.9631      19.223021     -2499.1861      1.360611       207.41389      204.84413      283.08051      287.54249      293.39449      55655.163      15760.146      16           
   3477000  -2480.8504      19.47417      -2500.3246      1.360611       210.12376      262.0779       288.02638      287.74342      287.81952      55987.128      15854.15       20           
   3478000  -2478.9296      20.9343       -2499.8639      1.360611       225.87838      331.59131      315.24744      298.58264      293.81403      56407.611      15973.22       24           
   3479000  -2477.2641      21.787601     -2499.0517      1.360611       235.08538      380.79701      305.56696      337.33652      316.89836      55302.075      15660.16       24           
   3480000  -2479.0755      20.32318      -2499.3987      1.360611       219.28447      406.96902      287.00302      308.01873      285.92656      55831.094      15809.965      23           
   3481000  -2478.2914      20.988541     -2499.2799      1.360611       226.46363      356.86092      310.3683       302.64957      300.76167      56252.969      15929.43       27           
   3482000  -2479.053       21.904834     -2500.9578      1.360611       236.35031      350.68942      340.43503      295.87168      308.05183      54989.505      15571.648      25           
   3483000  -2480.103       20.560307     -2500.6633      1.360611       221.84304      311.77431      298.78452      307.20638      307.60424      57776.408      16360.829      24           
   3484000  -2479.967       20.081561     -2500.0486      1.360611       216.67743      257.42558      279.3172       320.87695      318.99366      55558.93       15732.895      25           
   3485000  -2479.5673      20.437969     -2500.0053      1.360611       220.52303      249.39133      293.40799      314.51355      327.25671      56504.71       16000.716      27           
   3486000  -2479.3794      20.72329      -2500.1027      1.360611       223.6016       407.44974      292.89382      311.84252      304.65638      56632.435      16036.885      23           
   3487000  -2478.1618      20.955481     -2499.1173      1.360611       226.10691      289.55855      304.22415      320.29664      295.38281      55539.412      15727.368      18           
   3488000  -2478.3703      20.629212     -2498.9995      1.360611       222.58651      359.10708      307.38692      295.14224      293.86959      56359.707      15959.655      22           
   3489000  -2478.1287      21.17182      -2499.3006      1.360611       228.44118      307.9252       312.97075      314.45799      294.92039      55329.099      15667.813      23           
   3490000  -2479.6705      19.944967     -2499.6155      1.360611       215.20359      290.30897      298.59038      279.17453      329.56691      56246.246      15927.526      18           
   3491000  -2479.8163      18.997008     -2498.8133      1.360611       204.97525      170.91273      287.47005      267.50506      339.7165       54617.292      15466.247      22           
   3492000  -2479.0922      19.510808     -2498.603       1.360611       210.51908      277.05141      286.03367      281.80754      329.7502       56370.09       15962.595      21           
   3493000  -2478.9056      20.380583     -2499.2862      1.360611       219.90384      390.03673      279.93693      312.29919      345.37413      55164.192      15621.115      18           
   3494000  -2479.6579      19.579114     -2499.237       1.360611       211.2561       271.53897      280.05824      290.93647      337.97376      55202.713      15632.024      19           
   3495000  -2479.702       19.498771     -2499.2008      1.360611       210.3892       311.92317      267.2934       306.98503      315.57576      54989.889      15571.757      23           
   3496000  -2479.3895      20.259357     -2499.6489      1.360611       218.59583      252.94932      299.30597      298.35329      317.35241      55270.464      15651.209      21           
   3497000  -2479.5784      19.727372     -2499.3058      1.360611       212.85578      343.86349      294.31512      280.6742       286.20717      56025.042      15864.886      21           
   3498000  -2479.7315      20.171172     -2499.9027      1.360611       217.64432      287.70427      297.69994      296.52738      303.31135      55054.907      15590.169      25           
   3499000  -2481.5672      18.77759      -2500.3448      1.360611       202.60775      283.91768      274.54821      284.30614      254.96134      56274.924      15935.647      18           
   3500000  -2481.2842      19.616141     -2500.9004      1.360611       211.6556       266.96961      280.98732      304.25227      284.26856      55565.606      15734.786      20           
   3501000  -2480.4343      20.204399     -2500.6387      1.360611       218.00283      269.30608      293.11325      308.62542      292.69895      56248.018      15928.028      21           
   3502000  -2478.5909      20.536055     -2499.127       1.360611       221.58137      207.43213      321.90014      286.02622      299.23848      55883.097      15824.691      23           
   3503000  -2477.5106      19.923836     -2497.4344      1.360611       214.97559      265.50218      315.24694      261.5433       321.57504      55356.227      15675.495      31           
   3504000  -2480.4974      19.707269     -2500.2047      1.360611       212.63887      263.67067      289.18819      287.96646      332.21377      55396.361      15686.86       26           
   3505000  -2480.5656      19.227244     -2499.7928      1.360611       207.45946      225.94972      273.63818      299.12444      320.24279      56171.689      15906.413      28           
   3506000  -2480.2923      19.23286      -2499.5252      1.360611       207.52006      312.83761      284.8375       272.10739      310.57377      56645.262      16040.517      23           
   3507000  -2478.0835      21.741924     -2499.8254      1.360611       234.59253      289.4823       326.41166      319.13403      301.8501       55732.844      15782.143      25           
   3508000  -2479.6548      21.006701     -2500.6615      1.360611       226.65957      358.43481      307.0585       310.3273       285.80505      56261.14       15931.743      29           
   3509000  -2478.1089      21.036116     -2499.145       1.360611       226.97695      324.61444      310.94607      307.58006      306.5331       54796.34       15516.949      23           
   3510000  -2480.0277      19.582415     -2499.6101      1.360611       211.2917       360.94065      290.99005      276.29926      278.85608      56802.808      16085.13       28           
   3511000  -2478.9429      20.204887     -2499.1478      1.360611       218.0081       295.15402      308.59826      285.70758      274.48496      55937.221      15840.018      34           
   3512000  -2480.83        20.114216     -2500.9442      1.360611       217.02978      357.14693      286.97523      305.60354      254.774        55507.451      15718.318      34           
   3513000  -2479.4021      20.01515      -2499.4172      1.360611       215.96086      267.71005      305.91676      290.85617      247.00799      56545.635      16012.305      33           
   3514000  -2479.3833      19.154271     -2498.5376      1.360611       206.67209      229.48404      279.52503      299.88067      247.93388      55746.263      15785.943      28           
   3515000  -2479.8103      19.870195     -2499.6805      1.360611       214.39682      234.01375      314.27161      277.40496      249.89136      57307.795      16228.13       31           
   3516000  -2481.1685      19.818182     -2500.9867      1.360611       213.8356       263.35685      308.23666      279.96097      247.87242      55083.353      15598.224      29           
   3517000  -2480.375       20.073512     -2500.4485      1.360611       216.59059      311.90245      300.21385      290.62008      266.08969      57006.573      16142.831      33           
   3518000  -2481.4952      19.460262     -2500.9554      1.360611       209.9737       314.44576      268.15557      310.89405      277.53881      55314.89       15663.789      33           
   3519000  -2481.5347      18.707749     -2500.2425      1.360611       201.85418      264.03532      277.44584      277.95622      256.2927       56537.259      16009.933      27           
   3520000  -2480.2686      19.316831     -2499.5854      1.360611       208.42609      250.02992      288.09213      285.97455      282.82665      56175.196      15907.406      34           
   3521000  -2480.3988      19.385402     -2499.7842      1.360611       209.16597      273.00984      293.17939      278.54233      272.81663      56270.372      15934.358      32           
   3522000  -2478.1661      20.590037     -2498.7562      1.360611       222.16382      274.42233      304.72901      313.4798       262.39821      56770.582      16076.004      32           
   3523000  -2479.8825      19.241281     -2499.1238      1.360611       207.61091      196.06162      285.79752      292.66809      277.02243      54685.509      15485.564      25           
   3524000  -2480.9862      19.487973     -2500.4742      1.360611       210.27269      277.22372      292.28222      284.98638      265.53516      55890.189      15826.699      33           
   3525000  -2479.8689      19.38034      -2499.2492      1.360611       209.11134      238.24115      309.07372      261.65024      263.53504      54513.245      15436.783      28           
   3526000  -2479.2836      21.084616     -2500.3682      1.360611       227.50026      327.43888      308.15894      315.41717      288.52328      56177.412      15908.034      31           
   3527000  -2479.3847      20.773609     -2500.1583      1.360611       224.14454      320.06789      318.20874      286.90939      300.76976      55882.495      15824.521      33           
   3528000  -2480.5295      19.033327     -2499.5628      1.360611       205.36712      298.00835      277.09246      277.4241       310.60071      55526.004      15723.571      30           
   3529000  -2479.5522      19.838924     -2499.3911      1.360611       214.05941      235.72939      294.16033      300.82268      279.05467      56376.143      15964.309      31           
   3530000  -2479.6407      20.581322     -2500.222       1.360611       222.06978      310.64847      300.27691      309.12002      284.11094      55397.94       15687.307      35           
   3531000  -2479.251       20.563607     -2499.8146      1.360611       221.87864      322.96246      298.36134      307.20667      297.34362      57575.82       16304.028      34           
   3532000  -2478.6034      21.355478     -2499.9589      1.360611       230.42283      291.43402      301.25938      342.24122      289.71642      54831.812      15526.994      31           
   3533000  -2479.156       21.043259     -2500.1993      1.360611       227.05402      321.35716      298.05379      331.27745      276.36794      55992.711      15855.731      33           
   3534000  -2480.1144      19.777594     -2499.892       1.360611       213.39766      324.774        295.43998      289.64332      243.75171      55632.586      15753.753      30           
   3535000  -2480.4648      19.379648     -2499.8445      1.360611       209.10388      285.01748      293.62631      274.63626      281.66914      56083.776      15881.518      30           
   3536000  -2479.7223      20.014536     -2499.7368      1.360611       215.95424      272.22286      295.12949      301.0831       278.19676      55997.496      15857.086      30           
   3537000  -2480.765       19.851698     -2500.6167      1.360611       214.19724      252.38196      300.90277      284.21318      301.04364      56367.685      15961.914      27           
   3538000  -2479.9621      20.111669     -2500.0738      1.360611       217.00229      282.1658       295.80305      303.12337      274.16744      55949.285      15843.434      28           
   3539000  -2480.4366      19.504958     -2499.9416      1.360611       210.45595      263.69207      298.53398      277.59616      269.38048      55740.324      15784.262      27           
   3540000  -2479.5349      20.528036     -2500.0629      1.360611       221.49483      274.00078      300.34334      315.55659      269.64799      56177.618      15908.092      27           
   3541000  -2479.9075      20.3129       -2500.2204      1.360611       219.17354      243.18296      309.39244      298.58087      266.35216      55588.606      15741.299      28           
   3542000  -2481.2638      19.855865     -2501.1197      1.360611       214.24219      300.98246      293.6366       292.96896      274.83713      56837.59       16094.979      28           
   3543000  -2480.6693      19.498912     -2500.1683      1.360611       210.39072      288.50359      287.93505      292.74739      250.45145      54623.482      15468          30           
   3544000  -2479.7832      20.413459     -2500.1967      1.360611       220.25857      267.27283      291.15762      327.41616      257.98243      56155.96       15901.959      27           
   3545000  -2478.4092      20.47872      -2498.8879      1.360611       220.96272      252.5444       303.43161      311.83496      268.75582      55974.652      15850.617      26           
   3546000  -2479.8841      20.552604     -2500.4367      1.360611       221.75992      288.24835      314.52371      295.98679      260.26592      56591.962      16025.424      25           
   3547000  -2479.89        19.78723      -2499.6772      1.360611       213.50164      318.11757      289.8772       296.53133      264.90668      55169.765      15622.693      22           
   3548000  -2478.232       20.656425     -2498.8884      1.360611       222.88014      317.92085      313.22419      295.32034      278.20755      56295.344      15941.429      21           
   3549000  -2479.7575      20.995321     -2500.7528      1.360611       226.53678      316.38206      308.79277      315.30898      279.36207      56947.298      16126.046      24           
   3550000  -2480.0469      19.388989     -2499.4359      1.360611       209.20467      343.26471      283.72846      283.36804      260.41727      56321.462      15948.825      31           
   3551000  -2479.3399      20.692279     -2500.0322      1.360611       223.267        257.82266      322.29562      292.31134      270.97356      57120.069      16174.971      28           
   3552000  -2480.0204      19.635017     -2499.6554      1.360611       211.85927      249.8422       296.20261      287.31457      270.73115      55953.286      15844.567      24           
   3553000  -2480.5696      19.474118     -2500.0437      1.360611       210.1232       399.14993      291.20424      272.76927      248.35838      57452.067      16268.984      26           
   3554000  -2479.4168      20.366598     -2499.7834      1.360611       219.75294      306.33714      320.3839       276.90652      253.55704      56108.597      15888.547      29           
   3555000  -2478.6482      19.899237     -2498.5474      1.360611       214.71017      280.63444      299.8354       292.39274      253.71937      56450.333      15985.318      27           
   3556000  -2478.6207      20.596328     -2499.217       1.360611       222.23169      337.21591      311.61993      296.33078      244.61769      54786.807      15514.249      28           
   3557000  -2480.4546      20.163728     -2500.6183      1.360611       217.564        279.3554       296.95637      307.65695      254.22952      56269.649      15934.153      30           
   3558000  -2480.3542      20.531266     -2500.8855      1.360611       221.52969      311.78839      299.66921      312.27692      261.43873      55452.128      15702.652      31           
   3559000  -2480.7062      19.924173     -2500.6304      1.360611       214.97923      290.3248       282.79561      318.64657      243.08146      55199.937      15631.237      28           
   3560000  -2479.5762      19.666504     -2499.2427      1.360611       212.19902      292.77881      303.19691      267.82702      300.106        56275.979      15935.946      27           
   3561000  -2477.6865      20.356362     -2498.0429      1.360611       219.6425       271.48557      302.86168      301.30887      291.75348      55207.308      15633.325      27           
   3562000  -2478.5837      20.865937     -2499.4497      1.360611       225.14074      329.18098      322.14072      290.35193      275.05071      57597.652      16310.21       24           
   3563000  -2479.4529      20.892645     -2500.3455      1.360611       225.42892      334.95738      328.05464      279.74585      286.75074      54853.622      15533.17       21           
   3564000  -2479.1276      19.892879     -2499.0205      1.360611       214.64158      332.926        314.24618      261.34612      274.10113      56254.58       15929.886      24           
   3565000  -2479.573       21.471381     -2501.0444      1.360611       231.67341      322.79784      322.75065      315.61078      274.14204      55693.529      15771.01       22           
   3566000  -2478.7515      20.711807     -2499.4633      1.360611       223.47771      276.13931      341.55962      262.5791       271.6171       55740.585      15784.335      23           
   3567000  -2477.9579      21.125858     -2499.0837      1.360611       227.94526      292.00896      301.8069       333.55762      283.70823      56355.603      15958.493      18           
   3568000  -2480.9959      19.050683     -2500.0466      1.360611       205.55439      353.41207      300.07305      246.91681      276.3121       55328.672      15667.692      18           
   3569000  -2479.7232      19.711917     -2499.4352      1.360611       212.68902      250.97762      281.29068      312.31995      271.60451      56624.366      16034.6        21           
   3570000  -2478.899       21.187294     -2500.0863      1.360611       228.60814      488.72483      309.58298      313.61137      251.92174      55373.343      15680.342      18           
   3571000  -2479.1892      20.177028     -2499.3662      1.360611       217.70751      304.89518      299.16673      304.13812      251.31643      55675.557      15765.921      20           
   3572000  -2479.6696      20.138441     -2499.808       1.360611       217.29116      265.85128      300.59917      301.58793      264.70072      55148.201      15616.587      21           
   3573000  -2479.9098      20.840714     -2500.7506      1.360611       224.8686       360.6262       317.29792      297.30622      259.78785      57302.687      16226.683      20           
   3574000  -2479.6877      20.110515     -2499.7982      1.360611       216.98984      282.5734       309.04925      284.93966      268.56207      54771.634      15509.953      19           
   3575000  -2478.6848      21.114249     -2499.7991      1.360611       227.82         261.75029      316.98153      316.63138      276.13576      55559.254      15732.987      28           
   3576000  -2479.2801      20.060149     -2499.3402      1.360611       216.4464       223.68168      305.50399      293.39039      276.78399      56436.934      15981.524      23           
   3577000  -2480.1355      20.114892     -2500.2504      1.360611       217.03706      352.20281      293.75517      300.5907       264.33474      55251.093      15645.723      23           
   3578000  -2480.081       20.283326     -2500.3643      1.360611       218.85445      242.88943      293.03931      322.7293       258.28887      55465.424      15706.417      24           
   3579000  -2478.6947      21.282602     -2499.9773      1.360611       229.6365       334.38484      339.55553      284.61953      256.12423      55706.432      15774.664      24           
   3580000  -2478.8711      21.280859     -2500.1519      1.360611       229.6177       260.76792      330.20747      308.38306      251.39638      56044.805      15870.483      21           
   3581000  -2477.1953      22.02116      -2499.2165      1.360611       237.60545      348.09675      324.04499      338.76388      247.62487      55185.103      15627.037      23           
   3582000  -2477.4582      20.975719     -2498.4339      1.360611       226.32527      242.49698      326.01822      304.61331      246.47203      56275.582      15935.833      23           
   3583000  -2478.1814      20.667292     -2498.8487      1.360611       222.99739      243.613        321.43089      297.19398      253.99931      55871.448      15821.392      26           
   3584000  -2480.5919      19.060715     -2499.6526      1.360611       205.66264      312.43916      282.6872       278.20203      256.66547      56036.763      15868.205      28           
   3585000  -2479.0005      20.723932     -2499.7244      1.360611       223.60853      225.02543      306.02345      326.02011      243.03908      56092.28       15883.926      22           
   3586000  -2479.5551      19.568087     -2499.1232      1.360611       211.13712      316.54817      290.26165      291.82694      245.36736      55575.599      15737.615      20           
   3587000  -2479.7666      19.939179     -2499.7058      1.360611       215.14115      265.36807      279.29039      323.63958      268.52913      55309.687      15662.316      21           
   3588000  -2480.5643      19.315496     -2499.8798      1.360611       208.41169      214.10467      286.14142      293.22421      273.83123      56265.455      15932.965      24           
   3589000  -2479.0328      20.860791     -2499.8936      1.360611       225.08522      360.55456      295.8017       327.061        267.1431       55683.632      15768.208      22           
   3590000  -2478.5722      19.92239      -2498.4946      1.360611       214.95999      329.96346      288.19387      305.60552      258.61107      55971.041      15849.595      20           
   3591000  -2479.4052      20.003436     -2499.4087      1.360611       215.83448      265.19191      308.33522      283.42495      267.71368      56195.014      15913.018      18           
   3592000  -2477.9717      21.415657     -2499.3874      1.360611       231.07215      232.89566      321.28218      326.9629       259.99693      56857.576      16100.639      22           
   3593000  -2479.4658      20.884708     -2500.3505      1.360611       225.34328      282.75404      319.66419      309.81523      218.44956      56163.579      15904.117      27           
   3594000  -2479.8937      19.656494     -2499.5502      1.360611       212.09101      269.33627      287.09636      302.58192      253.64832      56162.234      15903.736      29           
   3595000  -2479.9328      19.919224     -2499.852       1.360611       214.92584      274.0709       300.47432      292.52025      257.98294      55610.604      15747.528      31           
   3596000  -2480.4765      20.092748     -2500.5692      1.360611       216.79814      302.85011      301.58957      293.06489      261.53943      56390.963      15968.506      28           
   3597000  -2480.6471      20.465449     -2501.1126      1.360611       220.81953      278.00967      318.74766      285.34132      269.47307      55962.932      15847.298      27           
   3598000  -2479.5398      19.41358      -2498.9534      1.360611       209.47         250.7837       290.4626       285.61625      285.56211      56247.646      15927.922      32           
   3599000  -2480.3903      19.980799     -2500.3711      1.360611       215.59022      332.94229      298.63884      290.20001      251.76319      56120.746      15891.987      28           
   3600000  -2479.3728      20.244867     -2499.6176      1.360611       218.43948      309.64829      316.66282      285.35294      212.00888      55841.829      15813.005      27           
   3601000  -2481.9313      19.16468      -2501.096       1.360611       206.7844       236.76523      298.47996      273.40081      234.13578      55643.781      15756.923      29           
   3602000  -2480.8695      20.515075     -2501.3846      1.360611       221.35499      291.3583       293.7394       327.55346      232.19167      56102.795      15886.904      32           
   3603000  -2479.0407      20.623979     -2499.6646      1.360611       222.53005      228.7468       317.62407      303.04276      255.86585      56338.378      15953.615      31           
   3604000  -2480.3115      19.948033     -2500.2595      1.360611       215.23668      267.18504      303.73878      285.83531      282.43408      56369.349      15962.385      32           
   3605000  -2479.9239      19.225003     -2499.1489      1.360611       207.43528      246.46406      284.33466      288.86591      275.65602      56331.299      15951.611      31           
   3606000  -2479.8794      20.830802     -2500.7102      1.360611       224.76164      268.04157      313.49094      309.26293      271.25477      56558.259      16015.88       32           
   3607000  -2482.5943      20.071199     -2502.6655      1.360611       216.56563      327.52927      286.42161      307.87784      272.56308      56053.151      15872.846      32           
   3608000  -2481.1657      19.273651     -2500.4394      1.360611       207.96018      321.93269      287.39882      275.76168      266.30499      56430.1        15979.589      30           
   3609000  -2479.9126      20.152093     -2500.0646      1.360611       217.43846      288.70541      315.25833      277.66134      255.17473      56511.368      16002.602      31           
   3610000  -2479.1167      21.878513     -2500.9952      1.360611       236.0663       236.11924      345.73641      311.40296      251.14563      55656.396      15760.495      28           
   3611000  -2477.8444      20.911483     -2498.7559      1.360611       225.63218      274.45443      331.26599      294.29486      215.21745      55969.306      15849.103      31           
   3612000  -2478.6245      20.896037     -2499.5205      1.360611       225.46551      257.52533      325.35268      301.14214      241.58281      55597.686      15743.87       33           
   3613000  -2478.8029      20.164852     -2498.9677      1.360611       217.57613      288.71513      311.46768      281.43071      269.96169      56470.849      15991.128      34           
   3614000  -2478.3445      20.940315     -2499.2848      1.360611       225.94327      296.19974      314.92991      306.45771      274.04644      55804.642      15802.475      33           
   3615000  -2480.1759      20.229703     -2500.4056      1.360611       218.27586      295.28923      297.40312      306.51253      253.19633      55841.817      15813.002      31           
   3616000  -2479.9738      19.678509     -2499.6523      1.360611       212.32856      265.21192      300.34912      281.27974      273.53061      55912.313      15832.964      31           
   3617000  -2479.2684      20.600797     -2499.8692      1.360611       222.27992      300.87133      294.12615      326.10759      256.25795      55832.001      15810.222      30           
   3618000  -2479.5535      20.484589     -2500.0381      1.360611       221.02605      276.96917      304.62213      311.63106      241.43505      55590.321      15741.784      28           
   3619000  -2479.9078      19.339674     -2499.2474      1.360611       208.67257      240.9074       304.89168      268.76415      246.5678       55183.412      15626.558      29           
   3620000  -2479.2984      20.651314     -2499.9497      1.360611       222.82499      325.3496       293.51694      326.80942      242.02211      56148.763      15899.921      31           
   3621000  -2480.6769      18.90399      -2499.5809      1.360611       203.97159      253.27318      298.14911      260.51662      239.49935      55913.133      15833.196      28           
   3622000  -2478.4096      21.85628      -2500.2659      1.360611       235.82642      289.85908      321.93604      337.80904      262.404        56007.093      15859.804      25           
   3623000  -2479.7737      20.794738     -2500.5684      1.360611       224.37252      292.40232      316.73847      302.0179       262.64257      55405.293      15689.389      23           
   3624000  -2479.0044      20.695749     -2499.7002      1.360611       223.30444      255.93289      293.43236      334.78722      268.00729      55586.741      15740.771      19           
   3625000  -2478.5201      20.412771     -2498.9328      1.360611       220.25115      404.2107       290.06413      310.14927      260.13401      56541.115      16011.025      27           
   3626000  -2479.1732      20.60903      -2499.7822      1.360611       222.36875      223.47674      318.77551      296.99773      276.07117      56646.616      16040.9        25           
   3627000  -2479.6546      20.129209     -2499.7838      1.360611       217.19154      257.93757      306.20986      294.69537      257.36867      55481.782      15711.049      23           
   3628000  -2481.0764      19.366472     -2500.4428      1.360611       208.96171      244.91736      293.8183       282.92106      260.77461      56362.002      15960.305      24           
   3629000  -2479.7942      20.212471     -2500.0067      1.360611       218.08993      303.17197      295.97693      304.19285      274.16375      55588.052      15741.142      29           
   3630000  -2481.2195      20.182948     -2501.4024      1.360611       217.77138      220.67249      315.60469      276.92988      315.57371      56168.298      15905.453      25           
   3631000  -2479.7895      20.968274     -2500.7578      1.360611       226.24495      306.88462      307.4752       307.61169      329.80842      56745.958      16069.032      25           
   3632000  -2479.1569      20.030438     -2499.1873      1.360611       216.12582      447.96407      299.78127      268.79063      299.65186      55653.445      15759.66       24           
   3633000  -2477.923       20.471727     -2498.3947      1.360611       220.88727      353.43853      315.44896      272.51676      318.25184      55557.247      15732.419      20           
   3634000  -2476.4658      22.122725     -2498.5885      1.360611       238.70133      401.78951      320.30957      324.50859      324.20989      55714.437      15776.931      26           
   3635000  -2480.3515      19.193143     -2499.5447      1.360611       207.09152      304.08505      295.21835      252.34914      327.86167      55776.776      15794.584      18           
   3636000  -2478.9548      20.797948     -2499.7528      1.360611       224.40716      340.43032      308.67603      297.21601      317.43019      55726.609      15780.378      22           
   3637000  -2477.0222      22.092615     -2499.1148      1.360611       238.37644      366.21057      350.65425      287.80725      304.1641       55987.711      15854.315      24           
   3638000  -2477.771       21.27064      -2499.0417      1.360611       229.50743      406.3271       333.6513       277.84896      283.90674      55561.076      15733.503      24           
   3639000  -2479.3031      20.267886     -2499.571       1.360611       218.68785      312.16035      295.11951      300.10284      308.78067      55813.733      15805.049      28           
   3640000  -2479.842       20.530527     -2500.3725      1.360611       221.52172      301.21218      300.16557      305.87219      304.08086      55507.262      15718.264      30           
   3641000  -2479.4735      19.849395     -2499.3229      1.360611       214.17239      266.52864      293.96104      291.26961      310.9616       56475.914      15992.562      31           
   3642000  -2479.1726      20.508718     -2499.6813      1.360611       221.2864       308.71146      300.56343      301.02753      317.75876      56305.697      15944.361      27           
   3643000  -2480.2128      19.572565     -2499.7854      1.360611       211.18542      287.20011      302.22967      264.61408      310.47181      55475.142      15709.168      31           
   3644000  -2479.9428      21.205789     -2501.1486      1.360611       228.8077       308.68545      309.71611      320.59233      292.16274      56494.37       15997.788      29           
   3645000  -2481.933       18.95304      -2500.886       1.360611       204.50084      285.95676      280.98622      274.96755      284.36264      55633.798      15754.096      25           
   3646000  -2478.5727      20.207355     -2498.78        1.360611       218.03473      366.0206       290.26138      304.70648      257.61214      55710.385      15775.783      31           
   3647000  -2478.0347      21.502762     -2499.5375      1.360611       232.012        292.25585      328.72988      312.54117      267.89112      55889.871      15826.609      30           
   3648000  -2481.4352      18.985931     -2500.4211      1.360611       204.85572      296.24224      280.96393      277.70527      269.59951      55667.804      15763.726      27           
   3649000  -2478.5886      20.769025     -2499.3577      1.360611       224.09508      257.69258      296.85894      329.10758      287.75923      56341.324      15954.45       24           
   3650000  -2480.4249      18.277506     -2498.7025      1.360611       197.21191      243.04115      270.61197      268.62848      281.8069       55597.015      15743.68       26           
   3651000  -2478.8635      19.878162     -2498.7416      1.360611       214.48278      325.40719      268.99102      325.30043      286.31639      55259.365      15648.066      25           
   3652000  -2480.4543      19.233163     -2499.6874      1.360611       207.52333      310.17052      273.48992      297.76387      268.21591      56325.083      15949.851      24           
   3653000  -2478.0249      20.842179     -2498.867       1.360611       224.8844       232.1937       318.28969      311.4186       252.9976       56345.738      15955.699      26           
   3654000  -2479.4219      19.981584     -2499.4035      1.360611       215.59869      219.37081      301.63258      304.06039      244.45561      55879.557      15823.689      26           
   3655000  -2480.0913      20.307089     -2500.3984      1.360611       219.11084      293.15173      319.17514      281.44312      241.44353      55613.874      15748.454      23           
   3656000  -2480.3055      20.635067     -2500.9406      1.360611       222.64969      317.14982      310.01129      303.4531       256.13376      55334.549      15669.356      24           
   3657000  -2480.106       19.500088     -2499.6061      1.360611       210.40342      267.21507      288.51677      296.25101      245.30972      56237.33       15925.001      27           
   3658000  -2480.8072      19.552977     -2500.3601      1.360611       210.97408      307.57881      288.99328      290.1208       252.48792      55120.227      15608.666      32           
   3659000  -2479.4436      19.779181     -2499.2228      1.360611       213.41478      285.21517      291.01109      295.65692      277.69588      55811.6        15804.445      28           
   3660000  -2480.5657      18.786781     -2499.3525      1.360611       202.70692      262.69373      287.69941      263.42717      274.01228      55959.364      15846.288      29           
   3661000  -2480.0515      19.332549     -2499.384       1.360611       208.59569      289.72156      277.3463       298.96858      265.41415      57159.662      16186.182      25           
   3662000  -2480.1274      20.722785     -2500.8502      1.360611       223.59615      256.89475      286.86463      343.17387      283.26523      55706.763      15774.758      26           
   3663000  -2479.3539      21.063865     -2500.4178      1.360611       227.27636      420.64982      294.81768      323.06208      286.64465      56319.247      15948.198      26           
   3664000  -2481.0352      19.394702     -2500.4299      1.360611       209.26631      305.40061      282.35014      289.58979      278.60907      54623.939      15468.129      26           
   3665000  -2480.9425      19.252286     -2500.1948      1.360611       207.72966      231.41839      293.70423      279.52774      267.06716      56390.676      15968.425      28           
   3666000  -2480.0057      19.459135     -2499.4648      1.360611       209.96154      256.67791      280.80017      308.11466      238.63351      55115.68       15607.378      32           
   3667000  -2480.9314      19.735563     -2500.667       1.360611       212.94415      309.49278      294.63912      292.11274      240.3259       56108.297      15888.462      26           
   3668000  -2478.2155      19.780624     -2497.9961      1.360611       213.43036      259.73623      291.7467       306.8184       233.78147      55925.112      15836.589      25           
   3669000  -2478.1445      20.487067     -2498.6316      1.360611       221.05279      219.88001      335.65056      274.35538      243.7721       56763.97       16074.132      22           
   3670000  -2478.2616      20.556854     -2498.8184      1.360611       221.80578      279.04009      305.35651      308.58808      270.73281      55113.143      15606.659      20           
   3671000  -2478.8058      20.357077     -2499.1629      1.360611       219.65021      313.39711      282.20735      330.6702       267.4595       55210.479      15634.223      26           
   3672000  -2478.0495      21.564743     -2499.6142      1.360611       232.68077      361.74981      312.60545      325.95912      285.63569      55933.252      15838.894      26           
   3673000  -2479.5573      19.947334     -2499.5047      1.360611       215.22913      372.86471      302.99664      284.46439      246.14486      55801.286      15801.524      17           
   3674000  -2480.2944      20.25152      -2500.5459      1.360611       218.51127      331.42884      307.26995      286.48487      274.13655      56254.876      15929.97       24           
   3675000  -2477.9825      20.379027     -2498.3615      1.360611       219.88705      315.46751      294.09519      319.90275      242.29456      54937.639      15556.961      21           
   3676000  -2479.5534      20.094157     -2499.6476      1.360611       216.81333      378.76684      302.36792      282.93229      268.43444      56275.029      15935.676      24           
   3677000  -2478.6007      20.186819     -2498.7875      1.360611       217.81315      219.15494      318.15941      283.14666      261.74474      55354.061      15674.881      22           
   3678000  -2479.8499      20.075789     -2499.9257      1.360611       216.61514      255.97791      293.89844      301.36976      303.39025      56913.695      16116.531      21           
   3679000  -2479.7686      21.361894     -2501.1305      1.360611       230.49206      310.57853      303.40771      331.70663      315.98207      55224.929      15638.314      22           
   3680000  -2478.6049      20.037242     -2498.6421      1.360611       216.19923      192.53456      298.54692      296.01801      311.16882      56975.098      16133.918      18           
   3681000  -2479.5938      19.488971     -2499.0828      1.360611       210.28346      377.49015      270.50329      296.97751      315.1188       55829.911      15809.63       18           
   3682000  -2480.4865      19.445434     -2499.9319      1.360611       209.8137       294.39063      291.71717      272.54838      310.94136      55476.794      15709.636      17           
   3683000  -2479.738       19.637062     -2499.3751      1.360611       211.88134      270.95871      286.38695      294.5601       292.52192      56378.559      15964.994      17           
   3684000  -2478.7249      20.053196     -2498.7781      1.360611       216.37137      245.87969      299.18356      295.30107      293.7676       55947.069      15842.806      19           
   3685000  -2478.1297      20.399351     -2498.5291      1.360611       220.10634      232.38763      313.18253      291.94183      285.67543      55466.228      15706.644      18           
   3686000  -2477.1567      21.02455      -2498.1812      1.360611       226.85216      322.55309      306.25753      318.72459      290.94998      55692.236      15770.644      15           
   3687000  -2477.5041      20.776117     -2498.2802      1.360611       224.1716       316.97443      297.40805      317.87978      306.97464      55602.671      15745.282      16           
   3688000  -2480.1034      19.698042     -2499.8015      1.360611       212.53931      319.16462      278.34653      302.29818      298.7708       56116.023      15890.65       22           
   3689000  -2480.7446      19.709841     -2500.4545      1.360611       212.66662      353.99691      276.81253      301.49121      301.30117      56769.088      16075.581      19           
   3690000  -2478.9326      20.608946     -2499.5415      1.360611       222.36784      323.84002      294.9419       317.57758      292.7661       55139.279      15614.061      16           
   3691000  -2480.65        20.101232     -2500.7513      1.360611       216.88968      271.88816      304.75087      287.70056      288.76668      55968.844      15848.972      19           
   3692000  -2479.979       20.441786     -2500.4208      1.360611       220.56421      259.11434      296.78349      311.86743      301.85818      55873.424      15821.952      20           
   3693000  -2479.8945      19.35905      -2499.2535      1.360611       208.88163      327.24108      280.5467       285.94724      290.13405      56179.342      15908.58       25           
   3694000  -2480.3982      19.10434      -2499.5025      1.360611       206.13334      323.87879      287.8036       261.72112      307.31308      55750.374      15787.107      26           
   3695000  -2479.8292      20.393255     -2500.2225      1.360611       220.04057      347.87012      287.03776      314.9539       292.28215      56436.421      15981.379      28           
   3696000  -2479.6769      20.57319      -2500.2501      1.360611       221.98204      271.4423       299.40321      316.3375       285.20736      56774.228      16077.037      28           
   3697000  -2480.3797      20.171595     -2500.5513      1.360611       217.64888      269.6473       283.62489      322.74041      289.96286      56823.578      16091.012      30           
   3698000  -2479.7824      20.467546     -2500.25        1.360611       220.84216      239.72644      300.97878      314.68034      286.74825      56779.061      16078.406      30           
   3699000  -2481.8098      17.643957     -2499.4537      1.360611       190.376        248.32181      251.57553      274.95902      254.74517      54697.405      15488.933      27           
   3700000  -2480.1718      19.647886     -2499.8197      1.360611       211.99813      194.65608      287.13502      307.25589      278.37922      56628.129      16035.666      25           
   3701000  -2480.958       19.4606       -2500.4186      1.360611       209.97734      320.0317       286.5882       282.82597      283.62563      55989.371      15854.785      28           
   3702000  -2479.8374      20.313453     -2500.1508      1.360611       219.17951      260.26704      292.71131      312.96012      315.7407       56313.678      15946.621      31           
   3703000  -2481.2333      20.265259     -2501.4986      1.360611       218.65951      283.3179       294.29962      306.79985      306.97427      56060.197      15874.841      37           
   3704000  -2479.8837      19.8167       -2499.7004      1.360611       213.81961      266.26894      302.90141      283.3885       270.87564      56026.473      15865.292      35           
   3705000  -2480.108       19.784878     -2499.8929      1.360611       213.47626      288.07104      279.15472      308.13428      307.77589      56187.833      15910.985      33           
   3706000  -2480.0218      20.608415     -2500.6302      1.360611       222.36211      322.68201      309.85993      289.99421      312.40806      55665.449      15763.059      34           
   3707000  -2480.6718      20.606103     -2501.2779      1.360611       222.33717      309.20149      293.13839      313.42981      339.42494      55511.333      15719.417      35           
   3708000  -2479.3645      20.567867     -2499.9323      1.360611       221.92461      306.93504      295.98324      305.15246      366.01208      56651.334      16042.237      37           
   3709000  -2481.5566      20.002994     -2501.5596      1.360611       215.8297       335.25123      281.72327      299.49533      350.28941      56433.988      15980.69       37           
   3710000  -2480.5939      20.548286     -2501.1422      1.360611       221.71333      330.51025      305.24014      295.05276      294.29057      55564.063      15734.349      36           
   3711000  -2481.1035      19.584737     -2500.6882      1.360611       211.31676      260.10219      293.97337      284.66347      297.04942      55980.766      15852.349      35           
   3712000  -2481.5617      20.303804     -2501.8655      1.360611       219.0754       314.17158      296.13591      300.66391      302.24038      54959.918      15563.27       32           
   3713000  -2480.465       19.696929     -2500.1619      1.360611       212.5273       278.33992      280.47106      299.90935      328.59732      56567.445      16018.481      29           
   3714000  -2480.0873      20.524643     -2500.6119      1.360611       221.45823      231.29177      325.83414      277.91004      306.44486      55432.789      15697.175      29           
   3715000  -2478.7833      21.596259     -2500.3796      1.360611       233.02082      355.69809      313.84542      316.95123      326.51412      56178.437      15908.324      34           
   3716000  -2479.2295      20.806465     -2500.036       1.360611       224.49905      327.88779      296.61081      314.35691      326.5705       56416.789      15975.819      40           
   3717000  -2478.6476      21.06449      -2499.7121      1.360611       227.28311      354.48345      296.74264      323.55213      307.26903      55755.911      15788.675      33           
   3718000  -2480.0543      19.828993     -2499.8833      1.360611       213.95225      256.61137      286.67831      304.42549      302.58982      55339.451      15670.744      32           
   3719000  -2479.2989      19.873894     -2499.1728      1.360611       214.43673      291.64962      299.02486      284.99149      287.23151      56029.768      15866.225      31           
   3720000  -2478.6554      20.755448     -2499.4108      1.360611       223.94858      320.1881       300.29514      310.78562      313.44206      56740.031      16067.353      24           
   3721000  -2478.0115      21.113474     -2499.1249      1.360611       227.81163      248.7465       323.57421      298.66863      324.07193      54986.701      15570.854      26           
   3722000  -2477.7704      21.684189     -2499.4546      1.360611       233.96957      301.87066      315.67184      327.75617      316.48778      55807.901      15803.398      21           
   3723000  -2477.9477      20.833295     -2498.781       1.360611       224.78854      325.58591      305.84109      300.56226      334.46859      55068.626      15594.053      24           
   3724000  -2477.7402      21.098306     -2498.8385      1.360611       227.64798      226.33734      282.80288      357.40567      328.33951      56529.175      16007.644      22           
   3725000  -2479.4811      20.626572     -2500.1077      1.360611       222.55803      203.60551      326.54071      276.81254      325.29873      54556.204      15448.948      21           
   3726000  -2479.245       20.949904     -2500.1949      1.360611       226.04673      348.93717      304.76545      306.33215      323.20098      56164.352      15904.335      25           
   3727000  -2479.4302      19.762674     -2499.1928      1.360611       213.23668      291.06711      288.53276      289.62527      317.46918      56383.917      15966.511      20           
   3728000  -2478.4623      20.855411     -2499.3177      1.360611       225.02717      500.40371      305.92165      288.94021      306.88371      56587.932      16024.283      21           
   3729000  -2479.4393      20.649254     -2500.0886      1.360611       222.80276      389.92027      300.21331      300.3909       309.73172      56078.199      15879.939      20           
   3730000  -2479.4346      20.24878      -2499.6834      1.360611       218.4817       386.52396      295.08226      293.59021      303.83815      55029.481      15582.969      19           
   3731000  -2477.3887      20.92134      -2498.31        1.360611       225.73854      270.80044      311.81755      306.88603      309.38386      56798.156      16083.813      21           
   3732000  -2477.842       21.628386     -2499.4704      1.360611       233.36747      308.05245      311.66944      329.47328      322.70707      54727.493      15497.453      23           
   3733000  -2478.4057      21.769025     -2500.1747      1.360611       234.88495      265.70286      335.57375      301.19751      343.6278       55699.312      15772.648      24           
   3734000  -2478.2058      21.036967     -2499.2428      1.360611       226.98613      349.40097      307.02947      298.4819       365.10003      56380.463      15965.533      25           
   3735000  -2480.0232      20.233475     -2500.2567      1.360611       218.31656      250.95         292.3479       297.89401      374.5806       55348.339      15673.261      26           
   3736000  -2480.371       20.329271     -2500.7003      1.360611       219.35018      331.73887      295.0259       295.20639      334.68787      57030.824      16149.699      24           
   3737000  -2477.6874      21.01788      -2498.7053      1.360611       226.78019      302.32406      308.60798      314.04642      300.70401      55436.846      15698.324      22           
   3738000  -2479.5979      19.504128     -2499.102       1.360611       210.447        249.57526      293.43726      283.32817      284.87603      56720.988      16061.961      22           
   3739000  -2479.9634      19.129817     -2499.0932      1.360611       206.40824      261.98274      286.90451      269.8832       316.32876      54513.393      15436.825      23           
   3740000  -2478.9277      20.487513     -2499.4153      1.360611       221.0576       343.24216      282.77092      324.21271      307.03782      57546.675      16295.775      23           
   3741000  -2478.8177      20.351684     -2499.1694      1.360611       219.59202      390.73725      303.46148      274.48814      347.07137      54304.287      15377.612      22           
   3742000  -2477.8527      21.22342      -2499.0761      1.360611       228.99794      285.37887      299.24176      326.94812      350.29413      57327.723      16233.773      20           
   3743000  -2478.6349      20.913465     -2499.5483      1.360611       225.65356      339.48332      308.54197      294.33976      355.44753      55883.248      15824.734      22           
   3744000  -2477.793       21.260387     -2499.0534      1.360611       229.3968       313.60978      293.66298      336.88085      336.11798      55647.565      15757.994      23           
   3745000  -2478.8302      20.087771     -2498.918       1.360611       216.74443      454.40554      282.40664      293.83935      322.52161      56070.7        15877.815      20           
   3746000  -2480.151       19.267928     -2499.4189      1.360611       207.89843      344.69503      256.74058      311.83888      302.90985      55872.285      15821.63       24           
   3747000  -2480.3738      20.687248     -2501.0611      1.360611       223.21271      287.40729      326.82093      275.39444      300.45456      56236.475      15924.759      21           
   3748000  -2478.2503      20.660679     -2498.911       1.360611       222.92603      366.67666      306.02658      298.65073      288.6368       54087.427      15316.202      22           
   3749000  -2479.8691      19.741351     -2499.6105      1.360611       213.00661      268.27872      300.59034      277.18257      298.22011      56255.78       15930.226      19           
   3750000  -2480.1807      19.613815     -2499.7946      1.360611       211.63051      405.62249      271.45343      296.58664      311.53506      54162.225      15337.383      22           
   3751000  -2480.7725      19.699901     -2500.4724      1.360611       212.55937      363.23329      291.60609      276.38829      314.34784      57260.601      16214.766      18           
   3752000  -2478.9698      20.113091     -2499.0829      1.360611       217.01764      438.89739      281.67941      302.61413      306.37995      54423.278      15411.307      18           
   3753000  -2478.8935      20.153589     -2499.0471      1.360611       217.4546       321.0596       312.87212      269.99947      303.69727      55821.567      15807.267      18           
   3754000  -2478.1863      20.777626     -2498.9639      1.360611       224.18788      334.15991      316.15209      289.83134      304.13103      56428.115      15979.027      15           
   3755000  -2478.5602      20.149381     -2498.7096      1.360611       217.4092       274.99524      313.47023      272.1093       305.6583       56836.812      16094.759      15           
   3756000  -2479.5783      19.701037     -2499.2794      1.360611       212.57162      306.90031      288.4244       282.07692      329.57554      55920.235      15835.208      19           
   3757000  -2478.0945      21.602475     -2499.697       1.360611       233.0879       331.251        303.69562      330.02465      354.04054      55782.871      15796.31       18           
   3758000  -2479.0441      20.591285     -2499.6354      1.360611       222.17728      327.83793      305.26361      288.48165      346.55183      57105.107      16170.734      14           
   3759000  -2479.9534      19.131923     -2499.0853      1.360611       206.43096      196.32986      279.01586      273.64655      355.7405       55201.442      15631.663      13           
   3760000  -2480.4356      20.814852     -2501.2505      1.360611       224.58954      256.6382       299.12129      315.01056      336.55615      57517.456      16287.501      17           
   3761000  -2479.0876      20.44125      -2499.5289      1.360611       220.55843      245.7962       291.61775      310.31098      333.92576      55308.211      15661.898      12           
   3762000  -2477.1674      22.123456     -2499.2908      1.360611       238.70921      352.54964      323.54666      329.13296      319.26302      57880.517      16390.31       16           
   3763000  -2479.3745      19.664941     -2499.0394      1.360611       212.18215      259.70945      297.96464      271.62948      317.56096      55400.834      15688.126      9            
   3764000  -2478.4738      20.694785     -2499.1686      1.360611       223.29404      231.86898      290.65369      324.78194      327.65705      57116.578      16173.982      12           
   3765000  -2480.3445      19.3997       -2499.7442      1.360611       209.32024      304.92908      265.55472      306.02023      321.07817      55933.165      15838.869      11           
   3766000  -2478.7716      20.384524     -2499.1561      1.360611       219.94636      242.38063      289.48454      317.6307       312.15915      56018.9        15863.147      14           
   3767000  -2479.2685      20.56023      -2499.8288      1.360611       221.84221      387.33378      288.12952      317.23441      307.06318      56964.444      16130.901      16           
   3768000  -2480.0866      19.872359     -2499.9589      1.360611       214.42017      360.51839      295.01665      279.33891      305.44102      54781.344      15512.702      22           
   3769000  -2479.1815      19.989224     -2499.1708      1.360611       215.68112      320.4712       287.7479       299.7376       305.19163      56722.689      16062.442      19           
   3770000  -2480.365       20.091509     -2500.4565      1.360611       216.78477      357.95786      283.82024      306.26026      305.41085      55085.446      15598.816      18           
   3771000  -2479.0548      21.086552     -2500.1414      1.360611       227.52115      336.03508      320.66819      294.52265      307.79314      56509.029      16001.939      19           
   3772000  -2478.2387      20.304724     -2498.5434      1.360611       219.08533      321.18983      292.6546       306.23205      302.02342      55586.977      15740.837      18           
   3773000  -2478.7784      19.498597     -2498.277       1.360611       210.38732      399.70287      301.57176      254.4414       285.81103      56254.035      15929.731      22           
   3774000  -2479.4134      20.243408     -2499.6569      1.360611       218.42373      410.91892      311.74063      276.14166      259.38414      55324.324      15666.461      19           
   3775000  -2479.28        19.713979     -2498.994       1.360611       212.71126      336.50214      303.8276       268.97424      276.28498      55760.452      15789.961      22           
   3776000  -2480.695       19.57396      -2500.269       1.360611       211.20048      349.21021      298.73844      268.16905      283.64443      56478.981      15993.43       20           
   3777000  -2479.4583      20.366038     -2499.8243      1.360611       219.7469       217.22267      297.40829      315.80856      290.67678      55542.082      15728.124      23           
   3778000  -2480.3027      19.582157     -2499.8849      1.360611       211.28893      250.04877      287.18691      291.8956       301.65099      57423.191      16260.807      21           
   3779000  -2478.0777      20.749961     -2498.8277      1.360611       223.88938      275.33021      306.88356      305.23659      317.61739      55437.819      15698.599      23           
   3780000  -2480.0661      19.972801     -2500.0389      1.360611       215.50392      357.23212      291.38925      287.50971      311.7115       56393.701      15969.281      24           
   3781000  -2479.0089      19.824341     -2498.8332      1.360611       213.90206      278.9945       277.93896      309.81336      316.67301      55052.227      15589.41       24           
   3782000  -2478.5647      21.408138     -2499.9729      1.360611       230.99102      293.54786      308.25456      329.60709      311.7435       56951.727      16127.3        25           
   3783000  -2479.6839      20.185145     -2499.8691      1.360611       217.79509      277.55857      294.8338       299.21051      319.52913      55339.765      15670.833      25           
   3784000  -2480.7477      19.893126     -2500.6408      1.360611       214.64424      319.99764      287.94193      292.80976      318.18743      55304.575      15660.868      18           
   3785000  -2478.8474      19.295741     -2498.1431      1.360611       208.19853      257.64631      284.6776       276.97279      327.54767      56200.031      15914.439      19           
   3786000  -2478.5342      20.42607      -2498.9603      1.360611       220.39463      335.07728      301.73178      291.37858      323.79379      56168.837      15905.605      20           
   3787000  -2478.3659      20.241445     -2498.6074      1.360611       218.40256      252.45887      305.22042      290.2498       310.95432      57613.498      16314.697      21           
   3788000  -2478.6035      20.222858     -2498.8263      1.360611       218.202        248.33154      309.69341      283.62634      306.52475      55324.28       15666.448      19           
   3789000  -2479.356       20.703652     -2500.0596      1.360611       223.38971      294.89433      307.29292      304.61295      296.81915      56851.706      16098.977      20           
   3790000  -2478.7267      20.391372     -2499.1181      1.360611       220.02025      186.62424      300.31566      311.06442      312.30387      54773.282      15510.419      22           
   3791000  -2479.147       21.547737     -2500.6947      1.360611       232.49727      318.28853      315.49553      318.08333      329.11235      56488.051      15995.999      23           
   3792000  -2479.5953      20.626821     -2500.2221      1.360611       222.56072      300.54304      301.8668       303.15843      325.74747      57089.191      16166.227      24           
   3793000  -2477.257       22.126056     -2499.3831      1.360611       238.73726      394.61849      302.42855      350.41672      325.1494       55853.656      15816.354      30           
   3794000  -2478.9674      19.603949     -2498.5714      1.360611       211.52406      263.64434      292.78745      281.1241       315.35258      55981.487      15852.553      24           
   3795000  -2479.6304      20.128961     -2499.7594      1.360611       217.18887      279.58583      301.21192      291.02594      300.67079      55018.197      15579.773      23           
   3796000  -2480.5409      19.017837     -2499.5588      1.360611       205.19998      234.73099      270.7723       288.95057      336.18868      56479.418      15993.554      25           
   3797000  -2479.1341      20.081613     -2499.2157      1.360611       216.67799      259.51919      296.58154      287.49651      355.79985      54442.804      15416.836      25           
   3798000  -2478.6692      20.097829     -2498.7671      1.360611       216.85296      358.73085      308.82799      264.73682      321.05994      56668.223      16047.019      25           
   3799000  -2479.6938      20.319186     -2500.013       1.360611       219.24137      287.03837      294.25145      300.79503      332.84451      55947.688      15842.982      20           
   3800000  -2478.4539      20.958818     -2499.4127      1.360611       226.14292      261.82728      329.37088      277.46032      335.7345       55858.917      15817.844      20           
   3801000  -2479.7913      20.17594      -2499.9672      1.360611       217.69577      322.98427      284.23582      306.07256      332.61537      55870.462      15821.113      26           
   3802000  -2479.7512      20.194215     -2499.9454      1.360611       217.89295      321.58183      299.22407      287.38307      320.93016      54898.479      15545.872      27           
   3803000  -2480.4078      19.045183     -2499.453       1.360611       205.49504      274.21675      263.51892      300.61459      311.13457      56824.792      16091.356      25           
   3804000  -2479.9687      19.975378     -2499.9441      1.360611       215.53172      243.16301      302.93257      278.35828      341.17139      54957.693      15562.64       24           
   3805000  -2479.9671      19.320676     -2499.2878      1.360611       208.46758      237.76183      284.01558      278.40411      350.54521      57203.324      16198.546      25           
   3806000  -2480.4346      19.231266     -2499.6659      1.360611       207.50286      256.87941      271.23019      288.37818      363.07079      55667.778      15763.718      24           
   3807000  -2481.7768      19.185609     -2500.9624      1.360611       207.01023      249.47603      267.894        292.73711      363.93481      55429.896      15696.356      25           
   3808000  -2480.9351      19.544111     -2500.4793      1.360611       210.87841      277.65127      284.94692      277.22918      367.54748      55794.147      15799.503      24           
   3809000  -2481.125       20.167629     -2501.2926      1.360611       217.60609      326.56448      280.94755      305.74831      355.45028      56167.851      15905.326      22           
   3810000  -2479.9954      19.931237     -2499.9266      1.360611       215.05546      237.12415      296.23473      285.93479      340.98795      56886.399      16108.801      21           
   3811000  -2477.3902      21.834363     -2499.2246      1.360611       235.58994      318.76125      330.04334      306.66676      336.24793      55479.376      15710.368      20           
   3812000  -2479.3219      19.970371     -2499.2923      1.360611       215.47771      312.44015      286.20784      290.44386      357.36346      55843.009      15813.339      21           
   3813000  -2479.9706      20.589616     -2500.5602      1.360611       222.15927      372.40845      295.64252      299.76182      334.03897      56272.863      15935.063      25           
   3814000  -2479.7762      20.098732     -2499.8749      1.360611       216.8627       339.69847      287.55664      292.75579      349.30976      57043.851      16153.388      24           
   3815000  -2477.7237      21.827674     -2499.5514      1.360611       235.51776      371.0948       315.73114      313.1789       377.45923      55582.464      15739.559      29           
   3816000  -2478.6002      20.61         -2499.2102      1.360611       222.37922      468.56362      289.15939      286.28344      400.50165      56422.11       15977.326      23           
   3817000  -2478.792       20.380138     -2499.1721      1.360611       219.89904      440.93787      278.86698      295.39666      401.8457       56239.832      15925.71       24           
   3818000  -2478.6591      21.111777     -2499.7709      1.360611       227.79332      455.77684      307.64859      282.6019       394.15226      56646.674      16040.917      24           
   3819000  -2477.9524      21.496115     -2499.4485      1.360611       231.94028      307.58559      310.67908      305.76364      430.6561       55098.951      15602.641      27           
   3820000  -2480.6574      19.715665     -2500.3731      1.360611       212.72946      439.48293      290.95863      252.31619      371.29151      56948.62       16126.421      30           
   3821000  -2478.9864      20.984564     -2499.9709      1.360611       226.42071      310.97434      308.7015       295.89312      376.28121      55137.974      15613.691      22           
   3822000  -2478.5782      20.315946     -2498.8941      1.360611       219.20642      343.00531      300.85852      275.26055      382.58131      57235.333      16207.61       23           
   3823000  -2478.3129      21.670658     -2499.9836      1.360611       233.82358      312.48054      299.26113      337.33891      376.84067      55790.924      15798.59       22           
   3824000  -2478.0962      21.046852     -2499.143       1.360611       227.09279      346.35739      301.73543      297.62696      409.09504      56626.85       16035.303      21           
   3825000  -2479.2079      20.414437     -2499.6223      1.360611       220.26912      405.55461      300.77817      275.14709      366.5405       56879.813      16106.936      24           
   3826000  -2477.4218      22.722276     -2500.1441      1.360611       245.1704       508.5847       314.07577      342.37531      344.72519      56014.698      15861.957      24           
   3827000  -2478.2221      21.363258     -2499.5854      1.360611       230.50678      425.85714      297.5452       319.88752      352.65085      57744.1        16351.68       23           
   3828000  -2478.846       20.728841     -2499.5748      1.360611       223.6615       323.15035      311.42417      288.10451      337.88337      54646.942      15474.643      22           
   3829000  -2478.9225      19.963855     -2498.8864      1.360611       215.4074       281.96027      282.14596      300.41286      354.40088      57704.492      16340.465      22           
   3830000  -2475.9189      22.686348     -2498.6053      1.360611       244.78275      353.44809      324.3489       342.4919       356.0355       54205.809      15349.725      22           
   3831000  -2479.1843      20.783422     -2499.9678      1.360611       224.25042      308.73115      290.15329      322.13795      343.7123       58503.895      16566.835      23           
   3832000  -2477.3337      20.633189     -2497.9669      1.360611       222.62943      300.40933      290.14393      314.76761      349.08299      55317.628      15664.565      20           
   3833000  -2478.4027      20.237305     -2498.64        1.360611       218.35788      267.38382      281.9831       309.82854      374.1143       56506.012      16001.085      22           
   3834000  -2478.9451      20.581667     -2499.5267      1.360611       222.07351      311.48573      304.25396      293.16029      339.57031      55792.364      15798.998      24           
   3835000  -2477.3706      21.12261      -2498.4932      1.360611       227.91021      352.61513      304.4417       311.79127      331.29778      55756.153      15788.744      26           
   3836000  -2478.1773      20.874145     -2499.0515      1.360611       225.22931      355.15688      304.4844       305.93344      311.18411      57144.321      16181.838      23           
   3837000  -2477.3946      22.183406     -2499.578       1.360611       239.35606      416.78924      320.85817      327.47859      307.28219      55533.357      15725.654      26           
   3838000  -2478.3021      19.950202     -2498.2523      1.360611       215.26008      285.5147       296.67276      291.88967      290.78825      57229.242      16205.886      29           
   3839000  -2477.925       20.391579     -2498.3166      1.360611       220.02248      228.56249      317.55371      286.56988      291.55839      54071.555      15311.708      26           
   3840000  -2478.3383      20.507069     -2498.8453      1.360611       221.2686       192.03118      301.37093      315.59544      321.59421      56988.429      16137.693      28           
   3841000  -2479.4457      19.800761     -2499.2465      1.360611       213.64763      222.34874      284.26491      304.68579      324.56026      55497.174      15715.407      24           
   3842000  -2478.9543      20.972315     -2499.9266      1.360611       226.28855      259.81787      310.57311      307.10809      346.45021      56828.758      16092.479      28           
   3843000  -2479.2313      21.251332     -2500.4826      1.360611       229.29911      306.22394      315.67815      307.3487       331.52461      55704.517      15774.122      29           
   3844000  -2479.3057      21.023311     -2500.329       1.360611       226.83879      314.62677      312.08873      303.53024      322.55003      55215.336      15635.598      29           
   3845000  -2482.0672      19.016832     -2501.084       1.360611       205.18915      322.71162      291.48468      251.12133      316.4489       56772.805      16076.634      30           
   3846000  -2480.6367      19.032994     -2499.6697      1.360611       205.36353      355.30685      262.93735      283.62503      344.26257      54171.67       15340.058      33           
   3847000  -2478.8513      20.169589     -2499.0208      1.360611       217.62724      333.52799      277.22091      323.5575       276.65233      57931.734      16404.814      33           
   3848000  -2479.4228      20.99404      -2500.4168      1.360611       226.52296      322.73515      300.85939      321.06839      301.2          55186.818      15627.522      31           
   3849000  -2479.0251      20.047293     -2499.0723      1.360611       216.30768      260.78802      288.26871      314.43081      278.63616      57226.808      16205.196      34           
   3850000  -2480.0893      19.710959     -2499.8003      1.360611       212.67868      328.10506      283.06701      293.25304      301.14427      53902.265      15263.769      33           
   3851000  -2479.0033      20.11987      -2499.1232      1.360611       217.09077      357.23045      299.76985      282.60463      298.22423      56582.047      16022.616      28           
   3852000  -2477.6143      20.739117     -2498.3534      1.360611       223.77238      388.12556      308.20517      292.6237       283.96989      56277.04       15936.246      30           
   3853000  -2478.4944      21.874521     -2500.3689      1.360611       236.02324      389.74547      316.05201      330.09604      269.92599      55804.286      15802.374      30           
   3854000  -2478.5524      20.821427     -2499.3738      1.360611       224.66048      295.49279      315.43178      298.40431      291.173        56735.611      16066.102      27           
   3855000  -2480.022       20.007451     -2500.0294      1.360611       215.87779      234.22749      290.64033      307.91909      299.07651      54663.644      15479.373      25           
   3856000  -2479.4895      20.457133     -2499.9467      1.360611       220.7298       336.60095      297.85884      306.30051      283.33303      57867.735      16386.691      23           
   3857000  -2479.9833      19.709412     -2499.6927      1.360611       212.66199      357.99644      286.75313      291.71516      273.70799      54600.519      15461.497      22           
   3858000  -2479.4026      19.718221     -2499.1208      1.360611       212.75704      329.19749      282.78982      302.3189       272.67873      58185.707      16476.732      19           
   3859000  -2477.9994      20.607596     -2498.607       1.360611       222.35327      314.7282       316.03567      287.05134      291.80865      54888.52       15543.052      20           
   3860000  -2478.3543      20.310526     -2498.6648      1.360611       219.14793      344.69356      283.32591      319.38928      288.36785      56911.54       16115.92       24           
   3861000  -2479.4056      19.073246     -2498.4788      1.360611       205.79784      323.18017      280.21255      269.93263      314.52555      55296.168      15658.488      26           
   3862000  -2479.4747      20.604273     -2500.0789      1.360611       222.31742      271.72491      308.70824      298.56485      308.10286      54926.764      15553.882      21           
   3863000  -2480.9472      19.448197     -2500.3954      1.360611       209.84352      273.13628      279.44002      297.36718      290.54567      57840.827      16379.071      18           
   3864000  -2481.1645      19.087559     -2500.2521      1.360611       205.95228      318.99531      279.48776      277.87449      293.02045      55158.278      15619.441      18           
   3865000  -2479.7501      20.39287      -2500.1429      1.360611       220.03641      328.354        297.79434      302.66636      296.14675      56689.696      16053.1        20           
   3866000  -2479.3579      20.345606     -2499.7035      1.360611       219.52644      232.998        294.84771      309.04567      319.83548      55275.274      15652.571      19           
   3867000  -2479.253       19.552518     -2498.8055      1.360611       210.96912      409.97699      276.17693      288.89601      311.86991      57268.723      16217.066      18           
   3868000  -2478.3357      21.154287     -2499.49        1.360611       228.252        234.03269      303.43178      329.87592      318.49569      55028.84       15582.787      19           
   3869000  -2477.207       20.989552     -2498.1966      1.360611       226.47454      298.01551      294.46057      329.88212      319.52733      57086.565      16165.483      16           
   3870000  -2477.7898      21.33487      -2499.1247      1.360611       230.20047      292.90519      306.955        322.64039      339.81166      56072.485      15878.321      22           
   3871000  -2478.493       21.763881     -2500.2568      1.360611       234.82945      376.9908       304.60926      334.69962      337.493        57184.714      16193.276      21           
   3872000  -2480.7204      19.222149     -2499.9426      1.360611       207.40449      300.24433      261.55621      300.53698      341.94364      55255.757      15647.044      25           
   3873000  -2479.0339      20.116927     -2499.1508      1.360611       217.05903      304.95945      301.96829      277.65044      342.14106      54842.266      15529.954      22           
   3874000  -2480.0056      19.696998     -2499.7026      1.360611       212.52804      296.59711      287.84236      284.11832      332.38325      56764.109      16074.172      22           
   3875000  -2478.6944      21.322227     -2500.0166      1.360611       230.06405      381.39138      297.50283      328.76684      323.44526      54906.032      15548.011      24           
   3876000  -2479.0241      20.531103     -2499.5552      1.360611       221.52792      286.08865      306.85266      290.148        341.6199       56296.93       15941.878      24           
   3877000  -2478.1068      22.467099     -2500.5739      1.360611       242.41707      384.77107      326.50397      329.60759      339.69375      55611.491      15747.779      24           
   3878000  -2479.161       20.711657     -2499.8727      1.360611       223.47609      391.54573      284.09627      312.36861      363.69283      56278.36       15936.62       28           
   3879000  -2477.9779      22.603307     -2500.5812      1.360611       243.88674      357.28818      337.97974      317.566        361.97583      55267.644      15650.41       28           
   3880000  -2480.3209      19.908409     -2500.2293      1.360611       214.80914      223.51833      306.75404      266.96126      381.53848      55689.77       15769.946      27           
   3881000  -2479.3585      20.835306     -2500.1938      1.360611       224.81024      299.44046      323.50004      278.44334      339.98098      56118.816      15891.441      31           
   3882000  -2479.9584      20.567328     -2500.5258      1.360611       221.91879      235.37996      312.31588      290.50521      347.05695      55932.464      15838.671      27           
   3883000  -2478.8389      21.245633     -2500.0846      1.360611       229.23761      293.02312      313.07706      309.82691      344.79951      56610.425      16030.652      26           
   3884000  -2477.7274      20.852116     -2498.5795      1.360611       224.99162      297.30884      314.87208      291.27961      341.179        55426.511      15695.397      28           
   3885000  -2477.6811      20.723688     -2498.4048      1.360611       223.6059       268.21279      291.68919      315.44597      387.58044      56657.433      16043.964      28           
   3886000  -2479.0506      20.984628     -2500.0352      1.360611       226.4214       307.96042      316.78138      284.64017      376.76426      55106.163      15604.683      24           
   3887000  -2479.5552      20.134026     -2499.6892      1.360611       217.24352      208.06026      297.31531      292.30674      366.99882      56173.938      15907.05       23           
   3888000  -2480.2731      19.676006     -2499.9491      1.360611       212.30155      285.15853      284.37133      279.53978      393.3628       56126.523      15893.623      25           
   3889000  -2479.0028      20.769155     -2499.772       1.360611       224.09648      282.44119      298.49821      304.94289      374.97571      56704.768      16057.368      20           
   3890000  -2477.8127      21.081516     -2498.8943      1.360611       227.46682      199.68603      314.82869      302.19006      382.77481      56557.877      16015.772      23           
   3891000  -2479.1169      20.542367     -2499.6593      1.360611       221.64947      217.52848      298.71428      301.62391      386.35361      56212.313      15917.917      24           
   3892000  -2479.8442      20.230399     -2500.0746      1.360611       218.28337      224.77256      295.26194      287.19712      410.47024      55896.612      15828.518      22           
   3893000  -2478.2039      21.4203       -2499.6242      1.360611       231.12225      280.1474       318.21315      306.43821      364.26416      54805.05       15519.415      23           
   3894000  -2479.3025      19.712426     -2499.015       1.360611       212.69451      287.75048      280.53993      302.97165      304.26491      56366.594      15961.605      28           
   3895000  -2479.3105      21.286938     -2500.5975      1.360611       229.68329      329.99323      298.79907      331.82901      319.33965      55541.093      15727.844      32           
   3896000  -2479.2851      20.546758     -2499.8318      1.360611       221.69685      270.99054      291.27468      317.85696      335.37561      56432.004      15980.128      28           
   3897000  -2480.7419      19.719648     -2500.4615      1.360611       212.77244      244.4409       293.12958      282.47779      358.1082       56355.39       15958.433      30           
   3898000  -2478.34        20.447679     -2498.7877      1.360611       220.62779      276.9183       298.50507      299.74531      348.78738      56572.497      16019.912      25           
   3899000  -2479.3451      21.176243     -2500.5214      1.360611       228.48891      213.3893       327.70858      294.99781      343.22273      56883.625      16108.016      24           
   3900000  -2480.7036      19.720817     -2500.4244      1.360611       212.78504      329.60365      286.19739      285.79456      321.76114      54895.277      15544.965      29           
   3901000  -2478.1611      20.595124     -2498.7562      1.360611       222.21871      236.99651      293.71405      324.65148      316.26707      55915.437      15833.849      27           
   3902000  -2478.9956      20.479741     -2499.4754      1.360611       220.97374      257.99937      308.38413      296.91731      309.84686      54971.855      15566.65       28           
   3903000  -2480.6549      19.260759     -2499.9157      1.360611       207.82109      283.35959      280.84064      277.33344      342.48991      55194.134      15629.594      28           
   3904000  -2479.4123      20.734643     -2500.147       1.360611       223.7241       340.33233      299.49995      309.59494      307.92479      55289.581      15656.622      25           
   3905000  -2478.7625      21.005516     -2499.768       1.360611       226.64679      264.91044      307.07882      316.90008      327.25613      56906.11       16114.383      30           
   3906000  -2479.1521      20.541059     -2499.6932      1.360611       221.63536      240.41747      302.36668      307.70054      327.06981      56973.061      16133.342      28           
   3907000  -2480.1423      19.98082      -2500.1231      1.360611       215.59044      233.96318      304.30684      282.76325      325.40944      55484.87       15711.923      27           
   3908000  -2479.0704      21.22808      -2500.2985      1.360611       229.04822      240.17347      329.53092      301.41506      303.08947      56278.467      15936.65       30           
   3909000  -2479.5424      19.918665     -2499.4611      1.360611       214.9198       212.85964      290.75821      303.69155      316.86213      55107.431      15605.042      25           
   3910000  -2479.2071      19.4784       -2498.6855      1.360611       210.1694       299.76246      312.46158      245.9814       296.89169      56908.931      16115.181      24           
   3911000  -2477.9312      20.924463     -2498.8557      1.360611       225.77223      247.89227      317.63666      302.20001      311.28917      55618.391      15749.733      26           
   3912000  -2478.7615      21.271522     -2500.033       1.360611       229.51695      320.92106      316.84447      309.23642      304.97782      55566.337      15734.993      23           
   3913000  -2478.0504      20.95057      -2499.0009      1.360611       226.05392      306.07195      313.1685       302.37157      309.2864       56583.987      16023.166      24           
   3914000  -2479.3424      19.702003     -2499.0444      1.360611       212.58205      309.90325      315.21445      247.36123      309.99808      56301.526      15943.18       23           
   3915000  -2479.348       20.547139     -2499.8952      1.360611       221.70096      286.44057      307.3195       297.19038      307.95436      56276.082      15935.975      25           
   3916000  -2477.6318      21.643651     -2499.2755      1.360611       233.53217      266.299        314.66384      335.26685      296.90431      55524.017      15723.009      20           
   3917000  -2479.3754      19.76222      -2499.1376      1.360611       213.23178      227.43001      308.69309      268.54732      316.92467      55443.7        15700.265      25           
   3918000  -2478.9116      20.263436     -2499.175       1.360611       218.63983      368.90772      301.06435      283.68507      307.04591      55716.931      15777.637      27           
   3919000  -2479.6679      20.769636     -2500.4375      1.360611       224.10167      364.79178      320.79345      277.09111      303.58291      55882.286      15824.461      26           
   3920000  -2479.4281      20.275994     -2499.7041      1.360611       218.77533      370.87818      300.11409      286.07251      298.9838       55581.933      15739.409      29           
   3921000  -2479.0311      20.137926     -2499.169       1.360611       217.2856       302.40894      302.0028       288.30856      296.64375      56489.512      15996.413      25           
   3922000  -2477.6152      20.380141     -2497.9953      1.360611       219.89907      204.67084      312.49458      289.36094      320.72525      55727.916      15780.748      23           
   3923000  -2478.8702      21.080991     -2499.9512      1.360611       227.46114      226.7243       300.33582      335.26578      318.89773      55591.074      15741.998      26           
   3924000  -2480.182       19.563602     -2499.7456      1.360611       211.08872      228.33561      285.13842      293.72222      323.5399       56065.063      15876.219      26           
   3925000  -2478.6689      20.4693       -2499.1382      1.360611       220.86108      197.01906      304.62605      308.62362      305.79788      55417.4        15692.818      23           
   3926000  -2478.4425      21.865062     -2500.3075      1.360611       235.92117      246.35714      326.35515      329.78745      299.69943      56213.489      15918.25       25           
   3927000  -2478.3079      21.288206     -2499.5961      1.360611       229.69697      315.3004       320.3524       309.43556      281.00507      56578.632      16021.649      29           
   3928000  -2478.0827      20.642975     -2498.7257      1.360611       222.73501      255.04712      313.69581      302.70152      270.50694      56695.434      16054.724      28           
   3929000  -2479.1842      19.547382     -2498.7316      1.360611       210.91371      328.59438      296.86726      274.26243      252.45762      55794.11       15799.492      31           
   3930000  -2479.1378      20.900254     -2500.038       1.360611       225.51102      267.05689      312.71665      315.05424      259.11276      56029.006      15866.009      31           
   3931000  -2481.9141      18.819204     -2500.7333      1.360611       203.05677      354.73838      278.0181       268.88038      261.7919       55843.427      15813.458      26           
   3932000  -2480.2898      20.303435     -2500.5932      1.360611       219.07142      393.41002      314.57971      269.72139      258.39706      56323.266      15949.336      29           
   3933000  -2479.4333      20.864849     -2500.2982      1.360611       225.12901      294.51317      303.24234      321.70756      270.15959      56114.663      15890.265      35           
   3934000  -2478.9841      21.102926     -2500.087       1.360611       227.69782      381.06166      313.12324      299.11639      295.2824       55799.323      15800.968      31           
   3935000  -2478.5338      20.573484     -2499.1073      1.360611       221.98522      338.50436      303.93501      301.28467      278.55361      56230.928      15923.188      28           
   3936000  -2479.367       19.795098     -2499.1621      1.360611       213.58653      330.68791      291.16115      286.50473      286.41795      55785.107      15796.943      34           
   3937000  -2478.6667      20.595642     -2499.2624      1.360611       222.2243       340.52814      315.08906      284.64134      277.55795      56529.921      16007.855      31           
   3938000  -2479.9529      20.356179     -2500.3091      1.360611       219.64052      353.98077      287.34398      310.73683      290.66913      55471.066      15708.014      33           
   3939000  -2480.0963      20.316203     -2500.4125      1.360611       219.20919      346.39082      294.7057       299.688        295.23546      55688.753      15769.658      30           
   3940000  -2481.4156      19.410191     -2500.8258      1.360611       209.43343      307.2065       269.89786      304.66607      297.59563      56006.153      15859.537      29           
   3941000  -2480.8558      20.01827      -2500.874       1.360611       215.99453      379.19322      291.73043      287.83555      296.81553      55595.3        15743.194      27           
   3942000  -2478.7275      20.649194     -2499.3767      1.360611       222.80212      267.04402      310.2774       296.82555      325.17443      56017.399      15862.722      27           
   3943000  -2479.8027      19.810243     -2499.6129      1.360611       213.74995      311.13206      291.89149      286.78302      302.89574      55281.819      15654.424      34           
   3944000  -2479.289       20.295135     -2499.5841      1.360611       218.98187      306.20957      304.31645      291.05491      294.79882      57132.585      16178.515      28           
   3945000  -2479.8204      20.214595     -2500.035       1.360611       218.11284      255.4574       298.64436      301.99553      300.06419      55619.201      15749.962      26           
   3946000  -2479.1428      19.797293     -2498.9401      1.360611       213.61022      304.28354      279.7152       306.73474      295.56426      56156.713      15902.172      31           
   3947000  -2480.5503      20.255402     -2500.8057      1.360611       218.55315      292.23425      273.80912      333.78205      310.12192      55218.917      15636.612      29           
   3948000  -2480.9556      19.615052     -2500.5707      1.360611       211.64386      239.70965      307.19866      269.96728      283.67038      55958.927      15846.164      27           
   3949000  -2479.6894      20.443842     -2500.1332      1.360611       220.58639      302.142        302.3559       305.28097      270.32214      56053.812      15873.033      25           
   3950000  -2479.0361      20.496448     -2499.5326      1.360611       221.15401      288.1094       305.74538      306.69676      258.55709      54591.016      15458.806      28           
   3951000  -2481.1161      18.709351     -2499.8254      1.360611       201.87146      268.67618      278.33928      273.71195      270.21262      56681.039      16050.648      25           
   3952000  -2479.3115      20.506363     -2499.8178      1.360611       221.26098      222.91847      318.76785      288.65685      301.918        54482.494      15428.075      27           
   3953000  -2480.5158      19.829411     -2500.3452      1.360611       213.95677      237.66375      299.99752      286.78522      296.89278      56856.653      16100.378      25           
   3954000  -2478.6924      21.374138     -2500.0665      1.360611       230.62417      249.61017      308.94156      336.13702      296.97329      54847.292      15531.377      27           
   3955000  -2479.2086      20.089425     -2499.298       1.360611       216.76228      252.68809      325.27581      261.53178      287.0236       57541.249      16294.238      30           
   3956000  -2478.4642      20.191238     -2498.6554      1.360611       217.86083      286.46912      293.22067      310.15096      272.60974      56344.581      15955.372      27           
   3957000  -2478.8683      19.857397     -2498.7257      1.360611       214.25872      367.72551      284.38921      301.95251      263.4628       55473.568      15708.723      23           
   3958000  -2478.5812      20.883614     -2499.4648      1.360611       225.33148      287.62493      321.23857      297.10697      275.34083      57431.948      16263.287      25           
   3959000  -2478.0861      20.348866     -2498.435       1.360611       219.56161      315.08616      288.74832      316.98094      285.14371      54051.36       15305.989      26           
   3960000  -2477.5142      21.034461     -2498.5487      1.360611       226.9591       310.86477      305.50027      317.17355      306.00587      57650.992      16325.315      25           
   3961000  -2479.812       20.246756     -2500.0587      1.360611       218.45987      267.02011      293.08674      303.72803      325.23563      54862.922      15535.803      21           
   3962000  -2480.6658      20.076275     -2500.742       1.360611       216.62039      243.58477      298.37074      291.47422      332.14948      57652.348      16325.699      25           
   3963000  -2480.1104      20.176547     -2500.287       1.360611       217.70231      326.44299      286.41347      303.42469      327.5817       54485.976      15429.062      23           
   3964000  -2480.1238      19.952248     -2500.0761      1.360611       215.28216      274.3547       297.97335      287.45541      309.30412      56190.976      15911.875      24           
   3965000  -2480.14        20.048436     -2500.1884      1.360611       216.32002      381.20392      285.83182      295.15526      300.30819      55098.94       15602.637      30           
   3966000  -2478.0491      20.054693     -2498.1038      1.360611       216.38753      270.89487      290.86595      304.50839      298.55427      55395.329      15686.568      22           
   3967000  -2481.0612      19.935614     -2500.9968      1.360611       215.10268      310.02106      254.34617      345.51563      314.14556      56678.206      16049.846      23           
   3968000  -2478.3544      21.175887     -2499.5303      1.360611       228.48506      275.93595      319.43026      303.92464      326.0648       55392.179      15685.675      28           
   3969000  -2479.8902      19.996358     -2499.8865      1.360611       215.7581       263.41763      315.83189      259.29937      340.10496      57563.763      16300.614      26           
   3970000  -2479.0835      19.956164     -2499.0396      1.360611       215.32442      286.65822      304.94582      276.71091      307.68056      54924.362      15553.202      28           
   3971000  -2479.0874      20.114505     -2499.202       1.360611       217.03289      301.53153      306.64798      277.73259      311.68363      56278.506      15936.661      25           
   3972000  -2477.744       20.890943     -2498.6349      1.360611       225.41055      298.54986      291.3756       340.29542      269.29819      55921.651      15835.609      29           
   3973000  -2480.1364      19.431841     -2499.5682      1.360611       209.66703      221.26144      298.4469       281.3334       262.96499      56389.193      15968.005      26           
   3974000  -2479.5042      21.099086     -2500.6033      1.360611       227.65639      302.75289      312.35751      319.32711      255.82561      55634.304      15754.239      28           
   3975000  -2479.0477      20.847026     -2499.8947      1.360611       224.93669      230.18714      323.64596      304.31529      252.24528      55345.299      15672.4        27           
   3976000  -2480.3906      19.106027     -2499.4966      1.360611       206.15154      304.069        280.7891       282.82286      264.56142      56775.893      16077.509      26           
   3977000  -2479.8856      20.452014     -2500.3376      1.360611       220.67457      222.52716      301.10378      317.43352      272.21576      54565.265      15451.514      25           
   3978000  -2480.0754      20.786084     -2500.8615      1.360611       224.27914      277.48669      315.35871      298.80276      296.55902      57576.581      16304.243      27           
   3979000  -2480.4292      20.272032     -2500.7012      1.360611       218.73259      262.68588      306.92579      294.62961      283.58116      54668.048      15480.62       26           
   3980000  -2479.1947      20.29141      -2499.4861      1.360611       218.94167      248.69302      294.51282      313.6888       291.87382      55979.746      15852.06       26           
   3981000  -2479.6177      20.138566     -2499.7562      1.360611       217.29251      320.32768      279.37732      322.21845      279.56101      55786.916      15797.455      27           
   3982000  -2478.5788      20.824588     -2499.4034      1.360611       224.69459      360.41937      314.79055      296.96069      249.64656      55128.113      15610.899      29           
   3983000  -2480.2466      19.41925      -2499.6658      1.360611       209.53118      308.3197       278.16967      301.15927      241.55194      55634.598      15754.322      32           
   3984000  -2481.2795      19.949783     -2501.2293      1.360611       215.25556      314.68643      308.2203       271.86945      283.43093      54734.217      15499.357      28           
   3985000  -2478.9003      21.645094     -2500.5454      1.360611       233.54774      342.50824      311.92659      332.32167      274.33924      57056.066      16156.846      32           
   3986000  -2479.8254      19.320422     -2499.1458      1.360611       208.46484      367.09013      271.19633      290.13305      293.00634      54123.808      15326.505      31           
   3987000  -2480.987       19.128511     -2500.1156      1.360611       206.39414      301.6407       267.93467      297.75545      291.53839      57221.659      16203.738      28           
   3988000  -2478.5588      21.001772     -2499.5606      1.360611       226.60639      340.15429      293.14447      329.9525       306.88092      55096.743      15602.015      26           
   3989000  -2480.2011      18.973618     -2499.1748      1.360611       204.72287      348.46689      276.09627      270.99045      306.34637      56060.765      15875.002      25           
   3990000  -2479.0618      19.334246     -2498.3961      1.360611       208.614        251.99544      294.73499      268.82197      315.81402      55815.289      15805.49       25           
   3991000  -2479.0739      20.347674     -2499.4216      1.360611       219.54875      258.41595      285.64078      325.11084      312.22774      56653.727      16042.914      30           
   3992000  -2480.3401      19.594114     -2499.9342      1.360611       211.41794      264.97369      282.52238      298.068        314.08831      56155.275      15901.765      32           
   3993000  -2479.4072      20.468752     -2499.876       1.360611       220.85517      317.04371      299.28376      297.25144      335.85966      56528.352      16007.411      32           
   3994000  -2478.0099      21.406638     -2499.4166      1.360611       230.97484      268.44471      301.64033      341.49122      327.56048      55714.442      15776.932      31           
   3995000  -2479.9976      19.767466     -2499.7651      1.360611       213.28838      275.40082      281.6412       305.55368      304.93267      55088.306      15599.626      29           
   3996000  -2479.4214      20.527668     -2499.949       1.360611       221.49087      358.48583      316.35355      274.04902      303.66118      57091.617      16166.914      27           
   3997000  -2480.9733      19.053809     -2500.0271      1.360611       205.58812      355.26438      278.99556      270.02518      300.62347      55415.083      15692.161      26           
   3998000  -2479.4066      20.494059     -2499.9007      1.360611       221.12823      312.56303      306.01587      293.38225      309.04601      56088.986      15882.994      24           
   3999000  -2479.7507      19.42801      -2499.1787      1.360611       209.6257       369.7123       274.94571      291.03649      290.10504      55494.151      15714.552      26           
   4000000  -2480.1395      19.65393      -2499.7934      1.360611       212.06335      343.64751      299.09445      269.39575      287.83685      55746.189      15785.922      24           
   4001000  -2482.087       19.315679     -2501.4027      1.360611       208.41367      333.93509      281.63969      283.74481      272.90414      56209.733      15917.186      29           
   4002000  -2479.7038      19.991639     -2499.6955      1.360611       215.70718      292.2228       284.63113      313.4446       273.23708      55086.567      15599.134      29           
   4003000  -2479.545       19.704962     -2499.25        1.360611       212.61397      247.36155      280.77102      312.58622      280.58405      56263.632      15932.449      29           
   4004000  -2481.4586      19.894842     -2501.3535      1.360611       214.66276      251.84925      298.75302      291.91555      286.54743      54856.879      15534.092      27           
   4005000  -2480.2721      20.775648     -2501.0478      1.360611       224.16654      249.6854       303.76624      317.31535      312.24262      56019.954      15863.446      30           
   4006000  -2479.6234      20.113652     -2499.7371      1.360611       217.02369      298.00445      303.80371      284.95628      298.38856      55966.65       15848.351      32           
   4007000  -2479.9901      20.359167     -2500.3493      1.360611       219.67276      259.31104      322.04025      275.77657      293.34516      56374.001      15963.703      33           
   4008000  -2479.5485      19.633232     -2499.1817      1.360611       211.84002      249.06407      276.3404       314.95325      287.89227      56248.547      15928.177      31           
   4009000  -2480.1957      20.02377      -2500.2195      1.360611       216.05387      238.65706      291.41799      313.04217      275.5277       56007.897      15860.031      33           
   4010000  -2477.7174      21.342832     -2499.0602      1.360611       230.28638      315.87872      302.6039       338.18881      274.6533       56515.814      16003.861      33           
   4011000  -2478.6312      21.924384     -2500.5555      1.360611       236.56125      251.13761      344.38479      305.24363      303.07198      55632.052      15753.601      27           
   4012000  -2480.0883      20.266604     -2500.3549      1.360611       218.67402      272.88366      309.2236       284.21246      312.06642      56425.561      15978.303      27           
   4013000  -2478.9619      20.27119      -2499.2331      1.360611       218.7235       229.9421       293.18441      313.24483      315.35223      55280.655      15654.095      27           
   4014000  -2479.7408      19.514687     -2499.2555      1.360611       210.56093      243.13348      310.82408      255.29464      306.97283      56132.902      15895.43       25           
   4015000  -2479.4219      20.524716     -2499.9466      1.360611       221.45901      321.3033       314.17141      286.24613      284.5058       55318.924      15664.932      24           
   4016000  -2481.1404      19.416542     -2500.557       1.360611       209.50196      261.29611      283.5524       291.64452      296.91155      56148.54       15899.858      28           
   4017000  -2479.8772      20.887633     -2500.7649      1.360611       225.37484      312.96867      328.66108      283.34396      260.43309      55679.009      15766.898      30           
   4018000  -2479.4471      20.005712     -2499.4528      1.360611       215.85903      277.31048      300.00997      296.13498      255.80919      55693.456      15770.99       29           
   4019000  -2480.1334      20.079396     -2500.2128      1.360611       216.65407      253.98189      282.8421       322.43693      288.2615       56936.247      16122.917      28           
   4020000  -2480.8631      20.216753     -2501.0799      1.360611       218.13613      298.04125      296.1493       303.19124      283.0329       55057.734      15590.969      26           
   4021000  -2480.0873      19.980519     -2500.0679      1.360611       215.5872       279.3483       292.84861      301.0163       282.52987      57598.59       16310.476      28           
   4022000  -2480.4075      19.555834     -2499.9633      1.360611       211.00491      218.04665      304.86245      274.57883      273.53813      55040.257      15586.02       23           
   4023000  -2479.1082      20.943177     -2500.0513      1.360611       225.97416      286.22265      312.58394      310.30522      284.71753      57223.858      16204.361      31           
   4024000  -2480.2168      20.338848     -2500.5557      1.360611       219.45352      301.64097      308.78644      293.61066      257.81512      54409.655      15407.449      26           
   4025000  -2480.4957      19.977999     -2500.4737      1.360611       215.56001      310.86309      304.28509      279.72637      282.75049      55847.158      15814.514      28           
   4026000  -2478.6979      20.67355      -2499.3715      1.360611       223.06491      318.21378      302.86004      313.92177      261.99307      55869.581      15820.864      25           
   4027000  -2480.0523      19.606259     -2499.6586      1.360611       211.54899      320.54463      286.93527      291.1053       271.19289      56505.795      16001.024      25           
   4028000  -2479.9299      19.355288     -2499.2851      1.360611       208.84103      338.41308      282.19045      283.42631      285.42817      56595.101      16026.313      23           
   4029000  -2480.3499      20.082408     -2500.4324      1.360611       216.68657      361.49303      299.82207      283.37305      289.59067      54737.49       15500.284      24           
   4030000  -2478.5364      20.874035     -2499.4104      1.360611       225.22812      306.78046      308.7777       310.82082      285.87551      56876.136      16105.895      22           
   4031000  -2480.1029      20.215468     -2500.3183      1.360611       218.12227      391.09374      288.02943      300.56956      304.03723      54531.887      15442.062      22           
   4032000  -2479.6623      19.621582     -2499.2839      1.360611       211.71431      378.22313      274.06817      301.09784      301.81374      57038.826      16151.965      17           
   4033000  -2477.9094      20.951963     -2498.8614      1.360611       226.06895      266.23567      298.21383      328.95841      305.18586      55136.848      15613.372      18           
   4034000  -2478.5762      20.659635     -2499.2359      1.360611       222.91477      298.31931      306.78342      302.02145      302.11527      55898.231      15828.977      17           
   4035000  -2476.1432      21.903191     -2498.0464      1.360611       236.33258      316.09862      344.1154       302.41614      271.18946      54906.538      15548.154      25           
   4036000  -2478.6044      20.846614     -2499.451       1.360611       224.93225      319.03134      330.34309      273.79626      298.77507      55544.485      15728.805      24           
   4037000  -2478.1853      20.51696      -2498.7023      1.360611       221.37533      244.14168      294.69628      321.72647      297.17312      56739.548      16067.216      24           
   4038000  -2480.5233      19.10843      -2499.6317      1.360611       206.17748      266.13375      273.20779      293.64209      290.40575      55256.359      15647.215      20           
   4039000  -2476.6563      22.09359      -2498.7499      1.360611       238.38696      374.42542      330.98212      322.60648      281.14969      57415.344      16258.585      20           
   4040000  -2478.7946      19.775677     -2498.5703      1.360611       213.37698      316.63777      291.98548      290.82317      278.86724      54933.209      15555.707      20           
   4041000  -2479.7826      20.704672     -2500.4873      1.360611       223.40071      291.10025      297.04498      326.05523      269.41159      58046.45       16437.298      21           
   4042000  -2478.9882      19.90507      -2498.8933      1.360611       214.77312      276.6142       286.09011      309.70777      274.89442      54962.677      15564.051      23           
   4043000  -2479.7813      19.623446     -2499.4048      1.360611       211.73442      337.97366      272.38078      309.9535       283.61523      56263.397      15932.383      21           
   4044000  -2479.7676      19.330729     -2499.0984      1.360611       208.57605      313.43115      274.12709      299.92364      273.05643      55130.679      15611.625      22           
   4045000  -2480.1746      19.808181     -2499.9828      1.360611       213.7277       259.56847      297.11805      287.77701      292.12903      55114.709      15607.103      22           
   4046000  -2480.1907      19.706539     -2499.8973      1.360611       212.63099      408.70983      291.04099      279.7185       276.91976      57522.865      16289.032      21           
   4047000  -2480.476       19.193905     -2499.6699      1.360611       207.09974      319.85702      272.1737       294.85409      277.63111      55643.405      15756.816      25           
   4048000  -2478.7565      21.201953     -2499.9585      1.360611       228.76631      354.3074       319.11613      301.39325      289.88146      57548.279      16296.229      25           
   4049000  -2479.5133      20.315902     -2499.8292      1.360611       219.20594      271.74318      292.25032      314.4139       294.55218      55023.327      15581.226      26           
   4050000  -2479.6765      20.04284      -2499.7193      1.360611       216.25963      227.03075      323.47364      264.19173      289.98957      56975.366      16133.994      25           
   4051000  -2478.5515      20.211251     -2498.7627      1.360611       218.07676      275.73885      289.12105      315.62498      285.55589      54820.692      15523.845      21           
   4052000  -2480.2542      18.566176     -2498.8204      1.360611       200.32663      282.73324      265.85107      275.45252      311.55733      56149.246      15900.058      21           
   4053000  -2479.813       20.326873     -2500.1399      1.360611       219.32431      261.78499      303.92153      295.03829      312.76151      56239.404      15925.588      24           
   4054000  -2479.2283      20.803129     -2500.0314      1.360611       224.46305      370.59877      314.3527       294.98226      265.61152      54879.737      15540.565      25           
   4055000  -2479.4797      20.510118     -2499.9898      1.360611       221.3015       376.38269      300.46741      299.42129      278.11635      56241.617      15926.215      27           
   4056000  -2479.0535      19.810232     -2498.8637      1.360611       213.74983      312.93727      294.00821      288.7763       279.10338      55434.792      15697.742      25           
   4057000  -2478.7754      20.654579     -2499.43        1.360611       222.86022      292.40644      302.87645      311.65146      286.06802      57668.01       16330.134      23           
   4058000  -2479.5449      19.388781     -2498.9337      1.360611       209.20242      280.18574      282.98022      288.56054      295.03152      54775.454      15511.034      23           
   4059000  -2480.539       19.496827     -2500.0359      1.360611       210.36823      314.3788       286.88294      281.99351      300.59332      56907.018      16114.64       24           
   4060000  -2478.848       20.253352     -2499.1014      1.360611       218.53103      310.13526      293.81139      302.75019      302.58215      54980.4        15569.07       29           
   4061000  -2479.4052      20.346919     -2499.7521      1.360611       219.54061      377.70534      294.07591      294.61656      317.0867       56903.089      16113.527      26           
   4062000  -2478.6019      20.298857     -2498.9007      1.360611       219.02203      288.69616      298.88602      293.36578      336.88592      54874.31       15539.028      25           
   4063000  -2477.181       22.854467     -2500.0354      1.360611       246.59672      425.44023      337.01679      330.79445      316.74041      56212.677      15918.02       22           
   4064000  -2479.0644      20.444708     -2499.5091      1.360611       220.59574      309.42673      287.43886      322.61172      293.22576      57139.919      16180.592      20           
   4065000  -2479.7285      20.319535     -2500.0481      1.360611       219.24513      289.95708      311.83699      280.6628       305.85723      55481.222      15710.89       20           
   4066000  -2480.5024      19.186051     -2499.6884      1.360611       207.01499      264.51145      282.37897      281.70129      305.10687      56526.587      16006.911      27           
   4067000  -2479.4176      20.482864     -2499.9005      1.360611       221.00744      250.20645      304.45139      309.13075      274.31027      55478.154      15710.021      22           
   4068000  -2479.6443      20.407677     -2500.052       1.360611       220.19618      329.08674      325.99476      266.78602      262.95311      57141.618      16181.073      24           
   4069000  -2480.1656      20.287689     -2500.4533      1.360611       218.90152      393.1628       299.28736      292.73791      262.45705      55124.002      15609.734      26           
   4070000  -2479.5457      19.747133     -2499.2928      1.360611       213.069        340.20815      305.55822      271.9379       245.59782      57090.219      16166.518      25           
   4071000  -2481.7754      19.876638     -2501.652       1.360611       214.46633      299.12876      292.30821      297.88924      264.76476      55066.206      15593.368      30           
   4072000  -2480.0164      20.475275     -2500.4917      1.360611       220.92555      235.42299      304.2014       308.36351      299.53096      55857.612      15817.474      29           
   4073000  -2480.7375      20.13625      -2500.8738      1.360611       217.26752      227.49292      296.95497      309.99113      280.07783      56057.41       15874.052      30           
   4074000  -2478.7628      19.933558     -2498.6964      1.360611       215.08049      298.4403       307.21957      277.29354      270.36616      55451.17       15702.38       32           
   4075000  -2480.1209      20.01189      -2500.1327      1.360611       215.92569      246.58459      299.21989      302.69426      259.20138      56151.179      15900.605      33           
   4076000  -2480.023       20.364606     -2500.3876      1.360611       219.73144      321.75416      294.61902      310.25499      267.94528      55662.868      15762.328      29           
   4077000  -2478.6073      20.734147     -2499.3414      1.360611       223.71874      309.68855      309.32127      304.66071      274.25372      56883.178      16107.889      31           
   4078000  -2480.8517      19.809188     -2500.6609      1.360611       213.73856      234.52132      319.5313       260.83985      283.95186      54202.208      15348.706      28           
   4079000  -2478.8225      20.882331     -2499.7048      1.360611       225.31763      336.78026      313.44828      301.81423      267.39519      56878.785      16106.645      29           
   4080000  -2479.0588      20.962934     -2500.0217      1.360611       226.18733      252.08394      293.84039      344.57059      282.74974      54888.963      15543.177      32           
   4081000  -2480.9636      19.196999     -2500.1606      1.360611       207.13312      241.11674      280.77809      292.03631      285.14008      57156.582      16185.31       30           
   4082000  -2480.0189      20.764347     -2500.7832      1.360611       224.04461      311.73096      296.44791      319.87819      300.79832      56008.352      15860.16       32           
   4083000  -2480.6912      19.304259     -2499.9954      1.360611       208.29045      261.85331      291.70235      277.24934      287.16128      55023.427      15581.254      33           
   4084000  -2479.711       20.034812     -2499.7458      1.360611       216.17301      255.33141      318.41922      273.37775      255.84542      57395.182      16252.876      29           
   4085000  -2479.5881      19.495264     -2499.0834      1.360611       210.35136      220.33692      297.8609       281.86502      283.19407      54718.827      15494.999      28           
   4086000  -2480.007       19.980511     -2499.9875      1.360611       215.58712      175.14893      301.38485      301.02264      279.6065       57604.184      16312.06       23           
   4087000  -2479.7139      20.720103     -2500.434       1.360611       223.56722      254.38758      312.96508      306.39261      276.60644      55126.524      15610.449      26           
   4088000  -2478.9282      20.974545     -2499.9027      1.360611       226.31261      340.51935      300.53649      315.96993      313.36963      56222.222      15920.723      30           
   4089000  -2480.4178      20.014357     -2500.4321      1.360611       215.95231      236.01875      304.86911      270.41748      383.5404       55902.673      15830.235      25           
   4090000  -2478.8666      20.847771     -2499.7144      1.360611       224.94474      338.99774      306.1609       300.31554      331.22633      56971.109      16132.789      23           
   4091000  -2478.4143      21.317668     -2499.732       1.360611       230.01486      237.63642      314.57384      318.83926      345.30324      55605.228      15746.005      28           
   4092000  -2479.8889      20.582538     -2500.4714      1.360611       222.08291      286.03338      305.22197      296.85435      343.88429      55517.401      15721.135      32           
   4093000  -2480.1138      20.182811     -2500.2966      1.360611       217.7699       253.15322      279.0356       323.94514      336.53331      57157.55       16185.584      30           
   4094000  -2480.4507      19.956411     -2500.4071      1.360611       215.32708      322.39924      304.71072      268.23733      329.36176      55960.924      15846.73       27           
   4095000  -2479.7025      19.395453     -2499.098       1.360611       209.27441      271.23771      289.04228      281.27618      293.21209      56965.552      16131.215      23           
   4096000  -2479.1336      21.501559     -2500.6352      1.360611       231.99902      215.18028      318.39064      330.59742      300.07004      55053.05       15589.643      24           
   4097000  -2478.5189      20.434286     -2498.9532      1.360611       220.48329      254.67629      307.85941      291.25104      329.64074      56938.991      16123.694      24           
   4098000  -2478.0564      20.869749     -2498.9261      1.360611       225.18188      330.56552      308.67164      296.87125      338.66113      56031.398      15866.686      23           
   4099000  -2479.5619      21.423356     -2500.9852      1.360611       231.15523      303.02575      314.91501      323.6444       290.91558      57125.82       16176.599      26           
   4100000  -2478.5663      20.516906     -2499.0832      1.360611       221.37474      430.42454      296.96836      304.46717      265.42841      55190.55       15628.579      21           
   4101000  -2478.0378      20.842499     -2498.8803      1.360611       224.88785      273.43845      312.02096      310.472        276.77869      55754.31       15788.222      28           
   4102000  -2480.1768      20.205722     -2500.3826      1.360611       218.01711      317.61401      308.09898      285.47119      270.79505      56003.956      15858.915      26           
   4103000  -2478.7025      20.136536     -2498.839       1.360611       217.2706       315.42471      301.95819      295.32861      260.50425      56308.254      15945.085      19           
   4104000  -2479.1593      19.709831     -2498.8691      1.360611       212.66652      334.91513      285.02309      295.64043      276.94723      55951.165      15843.966      24           
   4105000  -2479.377       20.11998      -2499.497       1.360611       217.09196      337.84639      287.67143      308.85783      275.25367      54307.205      15378.438      23           
   4106000  -2480.8764      19.374984     -2500.2514      1.360611       209.05356      222.25122      294.45515      279.14401      288.54303      57195.782      16196.411      23           
   4107000  -2479.6053      19.38232      -2498.9877      1.360611       209.13271      181.48735      298.29054      279.28755      287.88663      55324.125      15666.404      24           
   4108000  -2478.6421      20.561507     -2499.2036      1.360611       221.85598      275.66413      317.80916      286.27169      294.63306      57381.117      16248.893      24           
   4109000  -2480.736       19.260214     -2499.9962      1.360611       207.8152       267.04142      271.87346      299.64813      306.82714      55202.318      15631.912      30           
   4110000  -2479.8298      19.612036     -2499.4418      1.360611       211.61132      284.63579      277.06593      298.92771      339.27848      56202.855      15915.239      31           
   4111000  -2478.7278      20.995322     -2499.7231      1.360611       226.53679      199.78837      313.21797      316.61198      315.26608      56633.209      16037.104      25           
   4112000  -2480.4225      20.591327     -2501.0138      1.360611       222.17774      155.20754      310.07018      311.39618      323.60353      55444.738      15700.559      28           
   4113000  -2479.7019      19.450697     -2499.1526      1.360611       209.87049      222.48783      279.69271      300.24164      324.11219      57316.678      16230.645      29           
   4114000  -2480.5726      19.843141     -2500.4158      1.360611       214.1049       273.32262      291.26188      293.73126      315.76333      55261.953      15648.799      33           
   4115000  -2479.9992      20.423174     -2500.4224      1.360611       220.36339      230.05567      314.51178      289.92671      328.41428      56647.602      16041.18       35           
   4116000  -2479.0821      21.5117       -2500.5938      1.360611       232.10844      206.70766      331.79315      309.98874      348.7339       54788.246      15514.657      34           
   4117000  -2480.49        20.044787     -2500.5347      1.360611       216.28064      237.92487      299.41885      293.01547      325.35395      57171.711      16189.594      29           
   4118000  -2480.6327      20.063127     -2500.6958      1.360611       216.47853      285.94066      271.48304      330.76484      306.10189      56632.018      16036.767      31           
   4119000  -2479.0374      20.725358     -2499.7627      1.360611       223.62391      296.90619      295.28484      316.47478      336.62212      57039.708      16152.214      31           
   4120000  -2479.4862      20.646643     -2500.1328      1.360611       222.77459      313.06081      317.68763      281.12449      316.07546      55618.153      15749.666      29           
   4121000  -2479.0347      20.413535     -2499.4482      1.360611       220.25938      320.27438      305.96946      290.00826      303.21894      54982.954      15569.793      28           
   4122000  -2479.6338      20.734205     -2500.368       1.360611       223.71937      286.89907      296.74578      316.55163      329.25793      56499.465      15999.231      26           
   4123000  -2477.8214      20.987256     -2498.8087      1.360611       226.44976      358.11719      295.98834      320.71402      320.79966      56008.786      15860.283      24           
   4124000  -2479.2833      19.2869       -2498.5702      1.360611       208.10314      277.86208      266.25329      305.78929      313.58615      57785.557      16363.42       26           
   4125000  -2479.4645      19.980294     -2499.4448      1.360611       215.58477      387.16664      283.82952      301.18521      281.93353      55599.44       15744.367      24           
   4126000  -2480.3293      19.627237     -2499.9565      1.360611       211.77533      323.93225      281.38327      299.45401      279.15742      56899.996      16112.651      20           
   4127000  -2478.4779      21.213877     -2499.6917      1.360611       228.89497      327.96142      303.46856      324.85309      310.06752      54915.502      15550.693      23           
   4128000  -2479.8348      20.107755     -2499.9426      1.360611       216.96006      269.58635      295.96519      295.4876       323.20556      56783.051      16079.535      28           
   4129000  -2478.913       20.884209     -2499.7973      1.360611       225.3379       311.8841       305.27732      307.73866      323.22457      54879.857      15540.599      24           
   4130000  -2478.9107      21.124297     -2500.035       1.360611       227.92842      282.55208      307.29         323.11294      300.10008      56221.78       15920.598      26           
   4131000  -2478.7606      20.526844     -2499.2875      1.360611       221.48197      327.4651       312.36519      286.36607      292.67037      55235.393      15641.277      28           
   4132000  -2479.8269      20.215981     -2500.0428      1.360611       218.1278       279.44261      292.41526      305.90539      310.11321      55835.638      15811.252      25           
   4133000  -2478.6838      20.645687     -2499.3295      1.360611       222.76427      263.86916      302.09599      308.94073      321.89124      56781.222      16079.018      25           
   4134000  -2479.7804      21.075801     -2500.8562      1.360611       227.40515      341.58027      318.93322      294.96181      306.43325      55038.981      15585.659      26           
   4135000  -2478.2945      20.966801     -2499.2613      1.360611       226.22905      338.9497       315.06879      297.10862      303.87421      56730.749      16064.725      26           
   4136000  -2476.5701      22.914078     -2499.4842      1.360611       247.23992      451.24131      325.96634      351.26008      280.87934      55138.194      15613.753      25           
   4137000  -2478.0888      21.567328     -2499.6561      1.360611       232.70866      272.12794      320.40925      314.50463      339.92794      56837.074      16094.834      22           
   4138000  -2479.2834      20.087151     -2499.3706      1.360611       216.73774      256.53587      288.58072      299.9095       356.14367      54954.394      15561.706      26           
   4139000  -2477.4479      20.911037     -2498.359       1.360611       225.62737      258.46003      294.24664      325.07939      355.3486       57275.184      16218.895      24           
   4140000  -2477.8854      21.369145     -2499.2545      1.360611       230.5703       352.87916      313.95771      308.13425      330.17094      55256.698      15647.311      28           
   4141000  -2479.8948      20.166851     -2500.0616      1.360611       217.5977       278.03032      311.53725      267.34241      343.45005      55422.694      15694.317      19           
   4142000  -2480.089       19.644149     -2499.7331      1.360611       211.95781      370.07485      295.04909      266.71623      317.5251       55431.27       15696.745      21           
   4143000  -2479.256       19.733489     -2498.9895      1.360611       212.92178      364.65041      301.83138      262.78322      302.82706      55853.766      15816.385      25           
   4144000  -2480.848       20.174938     -2501.0229      1.360611       217.68496      319.09744      286.06537      308.32776      312.82307      56726.005      16063.382      22           
   4145000  -2480.8749      18.773241     -2499.6482      1.360611       202.56083      242.11082      269.02366      281.06795      326.51203      54689.865      15486.798      22           
   4146000  -2479.9789      20.460342     -2500.4393      1.360611       220.76443      365.21932      290.88818      305.89021      318.53029      57034.662      16150.785      25           
   4147000  -2478.6728      20.44021      -2499.113       1.360611       220.54721      272.75339      303.13399      301.76162      300.055        56076.248      15879.387      22           
   4148000  -2480.1833      19.918396     -2500.1017      1.360611       214.9169       330.18155      297.02669      281.97908      305.28964      57334.757      16235.765      21           
   4149000  -2480.0179      19.751553     -2499.7695      1.360611       213.11669      306.03958      298.38254      281.81524      275.50268      55549.051      15730.098      22           
   4150000  -2479.7426      20.012486     -2499.7551      1.360611       215.93212      266.22019      301.63979      287.46489      300.02788      57008.029      16143.244      24           
   4151000  -2479.998       20.427634     -2500.4256      1.360611       220.41151      239.15357      320.85336      282.55913      293.61649      56090.525      15883.429      29           
   4152000  -2480.2459      20.476815     -2500.7227      1.360611       220.94217      299.2867       306.06957      298.35836      286.73183      56159.589      15902.987      28           
   4153000  -2480.1368      20.312909     -2500.4497      1.360611       219.17364      220.59008      294.32515      319.3717       289.32996      56804.85       16085.709      27           
   4154000  -2479.5313      19.959132     -2499.4905      1.360611       215.35644      202.67829      292.57086      311.30982      276.72413      55412.443      15691.414      25           
   4155000  -2480.8304      19.782203     -2500.6127      1.360611       213.4474       282.87785      300.74008      283.89423      265.52075      56239.6        15925.644      28           
   4156000  -2479.6314      20.460249     -2500.0917      1.360611       220.76342      228.39907      317.16343      292.55381      279.25332      55126.441      15610.425      27           
   4157000  -2480.833       20.11855      -2500.9516      1.360611       217.07654      227.62248      303.72557      301.64162      269.26586      55934.969      15839.38       31           
   4158000  -2479.1721      20.09964      -2499.2717      1.360611       216.8725       213.6198       309.57611      293.8822       267.74756      55420.083      15693.577      30           
   4159000  -2479.3053      20.510897     -2499.8162      1.360611       221.3099       246.09258      321.8933       285.28688      283.26819      56515.491      16003.769      31           
   4160000  -2480.225       21.030961     -2501.256       1.360611       226.92133      262.31464      306.20333      324.63126      301.10473      56245.326      15927.265      32           
   4161000  -2481.8676      18.925948     -2500.7935      1.360611       204.20851      273.58439      269.07545      288.4607       312.26965      56654.483      16043.128      29           
   4162000  -2482.1021      18.990519     -2501.0926      1.360611       204.90523      287.74059      265.98715      294.87912      303.46189      56384.067      15966.553      34           
   4163000  -2479.9509      20.191085     -2500.1419      1.360611       217.85917      289.31424      299.80643      299.06944      274.50107      56006.502      15859.636      34           
   4164000  -2481.0453      19.003144     -2500.0484      1.360611       205.04145      313.71652      279.04782      276.82919      272.92101      55610.284      15747.437      33           
   4165000  -2479.6565      20.714251     -2500.3707      1.360611       223.50407      302.76169      304.6975       313.56641      261.89363      55264.728      15649.585      29           
   4166000  -2479.6178      19.961187     -2499.579       1.360611       215.37861      221.8517       305.7691       295.9187       248.30844      57071.955      16161.346      27           
   4167000  -2480.1898      19.383525     -2499.5733      1.360611       209.14571      265.99913      296.88037      278.99295      246.00215      56149.902      15900.244      24           
   4168000  -2478.4373      20.723082     -2499.1604      1.360611       223.59936      328.26828      300.83757      319.26128      254.52537      56066.443      15876.61       24           
   4169000  -2479.6453      21.166053     -2500.8114      1.360611       228.37895      268.93402      320.77602      313.25511      264.01054      55297.075      15658.744      22           
   4170000  -2479.6411      19.761148     -2499.4022      1.360611       213.22021      304.29438      302.12793      281.49949      248.95327      56450.109      15985.255      26           
   4171000  -2479.7196      20.211573     -2499.9312      1.360611       218.08025      261.78941      293.27339      316.52841      257.59865      56261.8        15931.93       23           
   4172000  -2480.8517      19.313169     -2500.1649      1.360611       208.38658      295.71947      293.3891       277.12216      244.27288      55476.246      15709.481      28           
   4173000  -2481.4539      19.96305      -2501.417       1.360611       215.39871      338.97605      299.00603      291.01033      234.96706      56457.818      15987.438      28           
   4174000  -2479.8338      19.607167     -2499.441       1.360611       211.55878      280.74757      290.26942      300.24874      223.63103      55870.192      15821.037      27           
   4175000  -2481.0376      19.498341     -2500.536       1.360611       210.38456      286.84204      302.7994       277.44128      212.36622      56084.936      15881.847      30           
   4176000  -2479.8565      19.939537     -2499.7961      1.360611       215.14501      278.04743      288.83734      315.4143       222.25045      55359.914      15676.539      30           
   4177000  -2479.9634      20.444195     -2500.4076      1.360611       220.5902       249.04768      315.20949      299.16372      241.35242      56259.26       15931.211      27           
   4178000  -2478.0773      21.135897     -2499.2132      1.360611       228.05358      242.4608       321.60132      316.27184      255.7138       55279.226      15653.69       29           
   4179000  -2480.2789      20.372469     -2500.6513      1.360611       219.81629      320.25366      293.91723      313.23448      259.74014      56830.718      16093.034      30           
   4180000  -2480.7925      19.762472     -2500.5549      1.360611       213.2345       245.16555      288.33656      305.3653       270.91691      55796.866      15800.273      26           
   4181000  -2478.6998      19.609256     -2498.309       1.360611       211.58132      261.50532      293.77118      291.89964      259.30729      54934.74       15556.14       31           
   4182000  -2479.2057      20.537903     -2499.7436      1.360611       221.6013       256.96917      322.61831      288.21293      252.82712      55509.775      15718.976      25           
   4183000  -2480.8951      19.231406     -2500.1265      1.360611       207.50437      234.00399      282.35546      296.09675      259.3493       55546.203      15729.291      27           
   4184000  -2481.8339      19.437954     -2501.2718      1.360611       209.733        224.59435      300.79985      278.17844      263.49713      56107.73       15888.302      28           
   4185000  -2481.0132      19.561408     -2500.5746      1.360611       211.06505      191.13843      298.38067      293.45358      249.29681      55694.189      15771.197      25           
   4186000  -2482.0238      19.709718     -2501.7335      1.360611       212.6653       300.75682      289.02965      293.0315       280.05681      57141.55       16181.053      26           
   4187000  -2480.4215      19.347064     -2499.7685      1.360611       208.7523       279.35402      276.02205      297.8642       293.6535       56542.471      16011.409      29           
   4188000  -2479.6204      19.879457     -2499.4998      1.360611       214.49676      257.21758      284.17637      311.98921      287.2264       55762.421      15790.519      28           
   4189000  -2478.9378      20.66005      -2499.5979      1.360611       222.91925      286.66761      312.85782      301.01628      267.30423      56178.42       15908.319      29           
   4190000  -2479.9749      20.692945     -2500.6678      1.360611       223.27418      263.05122      300.52909      322.93721      275.82595      56701.312      16056.389      32           
   4191000  -2480.2176      19.890805     -2500.1084      1.360611       214.6192       356.19672      301.31358      273.71451      278.3893       56243.323      15926.698      30           
   4192000  -2478.184       20.861222     -2499.0452      1.360611       225.08987      244.18651      324.11277      296.94931      281.93781      56636.789      16038.118      31           
   4193000  -2479.7159      20.190125     -2499.906       1.360611       217.84882      210.63251      316.94487      287.1026       263.26773      55241.542      15643.019      28           
   4194000  -2478.8274      20.633095     -2499.4605      1.360611       222.62841      254.83951      310.51228      307.58423      275.57322      56617.162      16032.56       32           
   4195000  -2481.567       18.43865      -2500.0057      1.360611       198.95063      270.41779      269.76849      271.69231      289.14082      55503.623      15717.234      29           
   4196000  -2480.1367      20.849267     -2500.9859      1.360611       224.96088      277.18187      315.36444      307.43493      262.40366      57045.015      16153.717      28           
   4197000  -2480.8972      19.928164     -2500.8253      1.360611       215.02229      278.94563      285.51522      309.45864      283.75443      55671.621      15764.806      26           
   4198000  -2480.1854      20.256125     -2500.4415      1.360611       218.56096      243.7766       295.21068      313.65574      285.02917      56244.294      15926.973      28           
   4199000  -2480.6884      20.014461     -2500.7029      1.360611       215.95343      309.12879      291.65327      300.45716      279.34037      55510.138      15719.078      28           
   4200000  -2481.0598      19.910264     -2500.97        1.360611       214.82915      268.20028      288.28682      302.76339      303.66186      55844.797      15813.846      29           
   4201000  -2480.2906      19.840083     -2500.1307      1.360611       214.07192      296.47921      286.64437      304.7721       265.63548      56633.284      16037.125      28           
   4202000  -2481.4031      18.524072     -2499.9272      1.360611       199.87233      275.73889      269.33643      277.92653      273.35414      56081.861      15880.976      24           
   4203000  -2480.2534      19.893794     -2500.1472      1.360611       214.65145      358.13627      291.37957      295.39447      249.22666      56910.705      16115.684      27           
   4204000  -2479.2883      20.054982     -2499.3433      1.360611       216.39064      284.03511      288.34594      318.08603      241.12489      55968.041      15848.745      29           
   4205000  -2479.2838      20.838515     -2500.1224      1.360611       224.84486      340.64483      292.89049      335.39587      248.39419      56335.436      15952.782      25           
   4206000  -2479.4395      20.218553     -2499.6581      1.360611       218.15556      304.67496      300.0685       305.58435      246.66533      55009.398      15577.282      20           
   4207000  -2480.5302      19.521709     -2500.0519      1.360611       210.6367       327.05162      284.18695      293.96657      259.74525      56407.943      15973.314      23           
   4208000  -2480.5572      19.925717     -2500.4829      1.360611       214.9959       260.94745      299.77179      295.19072      261.97873      55236.849      15641.69       24           
   4209000  -2481.8918      18.975602     -2500.8674      1.360611       204.74428      234.83704      294.68762      266.22404      259.51638      56658.913      16044.383      22           
   4210000  -2480.08        19.913714     -2499.9937      1.360611       214.86638      250.79304      306.41329      286.47758      256.95219      56702.518      16056.731      24           
   4211000  -2479.0109      20.82076      -2499.8317      1.360611       224.6533       247.32224      290.98767      347.636        256.51056      55849.606      15815.207      27           
   4212000  -2479.5533      20.120678     -2499.674       1.360611       217.0995       261.01627      292.21851      317.67829      244.63043      56381.027      15965.692      26           
   4213000  -2479.5857      20.377873     -2499.9636      1.360611       219.8746       353.74246      290.82924      317.98171      238.29829      55216.926      15636.048      28           
   4214000  -2479.6174      20.177407     -2499.7948      1.360611       217.7116       316.11559      297.44956      302.72266      258.48039      56032.622      15867.033      26           
   4215000  -2479.9109      19.584342     -2499.4952      1.360611       211.3125       296.70483      289.85942      290.64877      266.09845      55814.49       15805.263      21           
   4216000  -2478.2334      21.300218     -2499.5336      1.360611       229.82658      353.66277      324.59477      310.85299      231.65875      57436.397      16264.547      21           
   4217000  -2480.4851      20.156149     -2500.6413      1.360611       217.48222      339.4348       309.39689      287.60165      232.84826      55181.238      15625.942      23           
   4218000  -2480.0812      19.450973     -2499.5322      1.360611       209.87347      273.91669      285.97275      295.85373      253.10946      56805.631      16085.93       23           
   4219000  -2479.5782      19.833161     -2499.4114      1.360611       213.99722      327.25141      278.45747      313.4591       258.43742      55303.241      15660.491      29           
   4220000  -2480.5793      19.923765     -2500.5031      1.360611       214.97483      272.15956      299.10906      291.25122      278.0107       55941.48       15841.224      27           
   4221000  -2479.2791      20.470102     -2499.7492      1.360611       220.86974      228.98142      314.93237      297.03504      269.5346       56046.336      15870.916      24           
   4222000  -2479.0665      20.734077     -2499.8006      1.360611       223.71799      253.78424      305.14946      319.19357      272.18294      56359.004      15959.456      26           
   4223000  -2478.2681      21.83902      -2500.1071      1.360611       235.64018      318.75355      328.26185      331.67634      223.31276      56337.672      15953.415      27           
   4224000  -2479.0071      21.08093      -2500.088       1.360611       227.46049      326.95383      320.77243      305.23953      252.1686       55746.75       15786.081      24           
   4225000  -2479.5469      20.403798     -2499.9507      1.360611       220.15433      232.38713      322.14935      282.15149      267.7054       56426.781      15978.649      18           
   4226000  -2478.4311      20.520273     -2498.9514      1.360611       221.41107      288.16601      321.2947       287.71472      251.09406      54619.757      15466.945      19           
   4227000  -2479.1134      20.365769     -2499.4792      1.360611       219.744        324.29617      311.28836      292.1685       250.91775      57402.458      16254.936      21           
   4228000  -2480.5325      18.920518     -2499.453       1.360611       204.14992      286.07317      270.35718      292.79416      266.31018      54946.73       15559.536      24           
   4229000  -2480.561       19.7404       -2500.3014      1.360611       212.99634      280.77893      302.05226      282.87237      254.69261      55044.563      15587.239      29           
   4230000  -2479.2941      19.817838     -2499.1119      1.360611       213.8319       330.89996      305.19699      279.64398      228.10638      55783.27       15796.423      27           
   4231000  -2477.4576      21.084347     -2498.5419      1.360611       227.49736      307.40105      315.76841      304.13731      308.49369      55204.706      15632.588      24           
   4232000  -2477.9729      21.355228     -2499.3281      1.360611       230.42013      310.73092      322.23771      308.76145      291.47122      56102.478      15886.814      21           
   4233000  -2478.7107      19.784184     -2498.4949      1.360611       213.46877      283.08433      309.53881      268.23644      281.02154      56147.616      15899.596      27           
   4234000  -2479.4431      20.325887     -2499.769       1.360611       219.31367      284.08358      307.02136      288.21321      312.05272      57743.291      16351.452      26           
   4235000  -2480.4505      20.34687      -2500.7974      1.360611       219.54008      323.37628      298.48396      298.33567      301.58765      55289.81       15656.687      26           
   4236000  -2479.5243      20.238247     -2499.7625      1.360611       218.36805      321.61123      311.12744      276.98163      292.18248      57466.817      16273.161      27           
   4237000  -2478.2161      21.102677     -2499.3188      1.360611       227.69514      297.06089      320.22884      302.0428       295.56987      55411.432      15691.128      25           
   4238000  -2478.1947      21.104733     -2499.2994      1.360611       227.71732      248.38355      303.66235      327.63342      324.40513      54816.072      15522.536      26           
   4239000  -2477.8142      21.316286     -2499.1304      1.360611       229.99995      376.2205       301.06208      321.78091      331.86983      56452.485      15985.927      26           
   4240000  -2477.5167      20.990287     -2498.507       1.360611       226.48247      292.62102      319.91317      290.15918      337.61546      54551.754      15447.688      24           
   4241000  -2478.6314      21.571959     -2500.2034      1.360611       232.75863      268.16805      321.83305      315.51312      329.19206      56710.578      16059.013      23           
   4242000  -2479.6457      20.035628     -2499.6813      1.360611       216.18182      314.6967       290.65599      299.02927      296.45409      55158.791      15619.586      27           
   4243000  -2480.9835      20.213288     -2501.1968      1.360611       218.09874      360.54276      299.60813      283.45626      319.54104      57100.8        16169.514      24           
   4244000  -2479.7817      19.908398     -2499.6901      1.360611       214.80903      323.17135      302.60767      270.05907      323.55463      54743.703      15502.043      26           
   4245000  -2479.0642      20.964667     -2500.0289      1.360611       226.20603      295.26526      324.72083      286.12768      316.2405       56519.779      16004.983      26           
   4246000  -2478.4384      21.003758     -2499.4422      1.360611       226.62782      265.16239      298.35682      332.1825       307.65535      56170.217      15905.996      26           
   4247000  -2480.9023      19.461423     -2500.3638      1.360611       209.98622      290.38648      294.9351       270.04494      310.5959       55203.943      15632.372      27           
   4248000  -2479.9547      20.026481     -2499.9812      1.360611       216.08313      320.78521      281.04208      312.03511      291.55119      56360.731      15959.945      32           
   4249000  -2479.4947      20.282405     -2499.7771      1.360611       218.84451      331.56808      315.67013      273.4454       282.96726      54366.631      15395.266      24           
   4250000  -2479.8411      21.062499     -2500.9036      1.360611       227.26162      321.89608      309.42252      316.09985      278.5684       57241.519      16209.362      27           
   4251000  -2480.0176      20.081198     -2500.0988      1.360611       216.67351      302.88339      289.01002      299.35151      325.93053      54153.92       15335.032      21           
   4252000  -2480.1172      20.720209     -2500.8374      1.360611       223.56836      309.27616      296.35291      317.70402      306.08337      56431.044      15979.856      28           
   4253000  -2478.988       20.594001     -2499.582       1.360611       222.20659      283.31486      291.26222      323.46184      307.10959      55519.169      15721.636      28           
   4254000  -2479.756       20.581594     -2500.3376      1.360611       222.07272      286.66632      309.64122      295.36229      308.78741      56189.797      15911.541      28           
   4255000  -2479.9327      19.649082     -2499.5818      1.360611       212.01104      266.25351      285.27311      292.04876      329.45716      55630.83       15753.255      29           
   4256000  -2478.2219      20.793045     -2499.015       1.360611       224.35425      307.87708      310.04747      298.57069      318.29193      54626.023      15468.719      25           
   4257000  -2478.987       20.930468     -2499.9174      1.360611       225.83702      327.88929      302.15253      307.69527      347.04682      57513.931      16286.502      24           
   4258000  -2479.5007      20.912416     -2500.4131      1.360611       225.64224      235.75189      320.55573      290.8299       355.91692      55868.023      15820.423      26           
   4259000  -2479.9856      20.310125     -2500.2957      1.360611       219.14361      276.21814      306.47538      285.48818      333.20326      57246.41       16210.747      28           
   4260000  -2479.2407      20.104813     -2499.3455      1.360611       216.92831      242.23427      293.16349      300.70151      323.11966      54256.246      15364.008      21           
   4261000  -2478.8231      20.724649     -2499.5477      1.360611       223.61626      278.3449       295.01258      316.78715      338.37123      56421.334      15977.106      21           
   4262000  -2479.3306      20.235014     -2499.5657      1.360611       218.33317      253.19334      310.23128      278.09608      331.62215      55415.036      15692.148      21           
   4263000  -2479.3289      21.291442     -2500.6204      1.360611       229.73189      321.91945      309.58089      312.81214      340.88066      57259.483      16214.449      20           
   4264000  -2480.1941      20.417798     -2500.6119      1.360611       220.30538      343.37908      276.79323      324.20995      336.86733      55376.905      15681.35       20           
   4265000  -2480.1611      19.198571     -2499.3596      1.360611       207.15009      307.95475      281.0741       269.64105      345.70864      55507.791      15718.414      23           
   4266000  -2480.1301      20.451378     -2500.5815      1.360611       220.66771      275.51659      301.64461      297.73579      328.78476      56802.812      16085.131      21           
   4267000  -2479.7735      19.725309     -2499.4988      1.360611       212.83351      383.91498      281.98085      284.8491       327.61935      55632.132      15753.624      23           
   4268000  -2478.3794      20.717205     -2499.0966      1.360611       223.53595      442.64918      301.59305      294.15131      307.46138      56442.815      15983.189      23           
   4269000  -2478.1777      21.099926     -2499.2776      1.360611       227.66546      360.00533      321.6833       285.27438      333.76621      54777.944      15511.74       19           
   4270000  -2479.2974      20.336763     -2499.6342      1.360611       219.43102      415.76056      306.51104      270.56742      333.22827      57590.908      16308.3        20           
   4271000  -2478.9982      21.105617     -2500.1038      1.360611       227.72687      386.20432      306.71977      303.91692      336.45796      56148.44       15899.83       21           
   4272000  -2477.7944      20.888483     -2498.6829      1.360611       225.38401      436.9726       298.80856      297.7312       355.58608      57242.664      16209.686      19           
   4273000  -2479.3825      20.79665      -2500.1791      1.360611       224.39314      354.12497      285.43974      322.39414      356.57376      54966.707      15565.193      17           
   4274000  -2479.5322      21.314963     -2500.8472      1.360611       229.98568      438.23505      317.94488      287.39523      349.28301      56145.359      15898.957      21           
   4275000  -2480.1261      19.486823     -2499.6129      1.360611       210.26029      387.48077      268.36971      287.92038      354.55588      56194.887      15912.982      24           
   4276000  -2479.7429      20.115117     -2499.858       1.360611       217.0395       282.71527      299.73679      272.83947      391.47815      55867.898      15820.387      22           
   4277000  -2480.1869      19.729463     -2499.9164      1.360611       212.87834      401.98093      274.67715      284.54328      375.93952      55985.933      15853.812      24           
   4278000  -2480.8511      20.303525     -2501.1547      1.360611       219.07239      328.08102      293.23516      282.09948      407.67745      55721.223      15778.852      26           
   4279000  -2479.519       21.044776     -2500.5638      1.360611       227.07039      318.84418      292.92637      318.93054      401.21054      56832.986      16093.676      31           
   4280000  -2481.3939      19.616638     -2501.0106      1.360611       211.66097      278.23797      278.4193       285.74217      395.59808      56287.749      15939.278      25           
   4281000  -2480.4627      20.381968     -2500.8447      1.360611       219.91878      277.74638      298.55185      287.90465      399.89681      56587.257      16024.091      30           
   4282000  -2478.5832      21.29815      -2499.8814      1.360611       229.80426      268.35088      325.27475      286.83211      412.49966      54739.786      15500.934      30           
   4283000  -2479.7108      20.186551     -2499.8973      1.360611       217.81026      302.69134      284.43166      294.07719      418.40871      57077.608      16162.947      27           
   4284000  -2479.6024      20.386714     -2499.9891      1.360611       219.96999      325.37813      285.49917      300.21509      395.69625      55848.909      15815.01       23           
   4285000  -2479.8008      21.466337     -2501.2672      1.360611       231.61898      284.89463      309.92229      306.07033      425.83192      56221.223      15920.44       23           
   4286000  -2479.0151      20.644585     -2499.6597      1.360611       222.75238      285.64775      293.03157      300.85025      416.99295      55588.458      15741.257      26           
   4287000  -2480.0266      20.114803     -2500.1414      1.360611       217.03611      240.43782      292.46262      283.95111      410.27954      56525.108      16006.493      21           
   4288000  -2480.2647      19.234711     -2499.4994      1.360611       207.54003      257.84513      269.38736      283.04557      399.23411      55803.991      15802.29       23           
   4289000  -2478.3802      21.66242      -2500.0426      1.360611       233.7347       227.80858      327.05084      306.78796      376.5028       54227.862      15355.97       24           
   4290000  -2479.9166      20.507202     -2500.4238      1.360611       221.27004      302.27669      313.86138      267.90714      386.69453      56289.956      15939.903      23           
   4291000  -2478.2292      21.209209     -2499.4384      1.360611       228.84461      289.04548      302.11805      313.16338      401.5959       56080.22       15880.511      23           
   4292000  -2478.9199      20.814332     -2499.7343      1.360611       224.58394      373.25181      286.90153      312.81773      380.01505      56449.737      15985.149      23           
   4293000  -2478.8689      20.95719      -2499.8261      1.360611       226.12535      311.94364      288.99917      320.12563      405.43977      55029.399      15582.945      27           
   4294000  -2476.8776      22.077203     -2498.9548      1.360611       238.21015      298.75086      320.2498       317.26286      420.25122      56185.002      15910.183      23           
   4295000  -2479.0783      20.801567     -2499.8799      1.360611       224.4462       283.26651      302.66798      293.35914      408.25619      55545.171      15728.999      24           
   4296000  -2480.2095      20.180482     -2500.39        1.360611       217.74477      294.86306      289.17264      291.66962      389.51707      57535.984      16292.747      23           
   4297000  -2479.7368      20.930251     -2500.667       1.360611       225.83468      288.6381       291.25371      312.2415       426.17756      56908.017      16114.923      23           
   4298000  -2478.4687      21.19053      -2499.6592      1.360611       228.64306      359.20689      287.46366      323.77945      412.13761      55878.287      15823.329      23           
   4299000  -2479.4727      20.529077     -2500.0018      1.360611       221.50607      418.06709      294.83995      284.78491      372.42048      55493.112      15714.257      27           
   4300000  -2480.5145      19.552781     -2500.0673      1.360611       210.97196      434.1973       286.23894      257.27544      355.74669      55673.078      15765.219      29           
   4301000  -2479.731       20.092858     -2499.8238      1.360611       216.79932      356.10781      296.50967      278.55037      340.70273      55932.866      15838.784      25           
   4302000  -2479.4431      19.723022     -2499.1661      1.360611       212.80884      400.08488      276.22994      292.76068      327.50309      56416.683      15975.789      20           
   4303000  -2480.1443      18.460906     -2498.6052      1.360611       199.19077      226.19019      262.14047      276.82552      340.09803      57129.733      16177.707      20           
   4304000  -2480.5793      19.964827     -2500.5441      1.360611       215.41788      296.55103      290.99289      291.29272      329.29012      56276.339      15936.047      25           
   4305000  -2480.2025      20.00928      -2500.2118      1.360611       215.89752      296.44956      284.57216      300.65613      338.28925      55650.479      15758.82       20           
   4306000  -2479.4206      21.279277     -2500.6998      1.360611       229.60062      366.42094      303.99133      317.7604       335.32761      55451.301      15702.417      20           
   4307000  -2480.0928      19.447116     -2499.5399      1.360611       209.83185      320.81851      275.58812      291.90595      321.53383      55779.308      15795.301      19           
   4308000  -2478.8818      21.192303     -2500.0741      1.360611       228.66219      264.49177      291.30017      344.89629      325.85944      55859.08       15817.89       20           
   4309000  -2478.3297      20.6568       -2498.9865      1.360611       222.88418      247.39918      306.02897      301.79191      338.8688       55071.736      15594.934      25           
   4310000  -2479.1525      20.316748     -2499.4692      1.360611       219.21507      282.60954      307.86297      282.80904      326.66309      56152.095      15900.865      22           
   4311000  -2479.9201      19.54489      -2499.465       1.360611       210.88682      221.89042      286.31453      287.86438      329.72907      55275.104      15652.523      20           
   4312000  -2479.2886      20.569506     -2499.8581      1.360611       221.94229      257.15736      276.47922      340.40693      334.71587      55660.222      15761.579      23           
   4313000  -2479.6261      19.538645     -2499.1648      1.360611       210.81944      255.7467       277.8607       291.43972      355.18015      56063.37       15875.74       21           
   4314000  -2478.7022      20.86428      -2499.5664      1.360611       225.12286      415.18639      291.26154      311.60801      344.85061      55807.095      15803.169      21           
   4315000  -2479.4963      20.517009     -2500.0133      1.360611       221.37586      238.77414      316.37047      279.26406      348.10185      55883.592      15824.831      22           
   4316000  -2478.6225      20.732236     -2499.3547      1.360611       223.69813      379.57437      297.42486      304.36996      321.01134      55293.215      15657.651      27           
   4317000  -2479.7933      20.018467     -2499.8117      1.360611       215.99666      309.28697      283.92116      304.27148      320.43436      55864.604      15819.454      26           
   4318000  -2479.1729      20.642732     -2499.8156      1.360611       222.73239      323.8955       281.09261      329.9745       332.91596      55334.004      15669.202      26           
   4319000  -2479.2441      20.157319     -2499.4014      1.360611       217.49485      319.2552       290.14834      301.10751      314.3551       56926.362      16120.118      27           
   4320000  -2480.3996      20.073387     -2500.473       1.360611       216.58923      321.05298      292.42103      298.20277      293.197        55910.7        15832.508      24           
   4321000  -2480.1976      21.008211     -2501.2058      1.360611       226.67587      284.98219      321.79091      297.34858      300.14814      55841.431      15812.892      31           
   4322000  -2480.3119      19.880389     -2500.1923      1.360611       214.50681      292.83467      298.38998      286.17106      286.56407      55950.567      15843.797      33           
   4323000  -2478.2528      20.334155     -2498.5869      1.360611       219.40288      315.39795      310.07613      286.05653      276.23523      56116.239      15890.711      30           
   4324000  -2479.0678      20.643465     -2499.7112      1.360611       222.7403       236.77894      311.32246      299.64865      313.8938       56359.667      15959.644      23           
   4325000  -2479.9344      20.601249     -2500.5356      1.360611       222.2848       240.45364      297.72365      319.35126      311.13758      55919.327      15834.951      27           
   4326000  -2479.6108      19.559447     -2499.1703      1.360611       211.04389      209.73194      281.06163      304.07729      315.84483      55843.342      15813.433      26           
   4327000  -2481.6666      19.289721     -2500.9564      1.360611       208.13358      324.78488      292.01397      263.87255      303.32128      55857.123      15817.336      26           
   4328000  -2479.4837      20.920828     -2500.4046      1.360611       225.73301      333.59222      296.66056      322.22678      300.38685      56625.668      16034.969      33           
   4329000  -2480.4441      19.59334      -2500.0375      1.360611       211.40959      256.59586      273.02555      314.19764      302.1753       56033.372      15867.245      29           
   4330000  -2478.3212      21.363814     -2499.685       1.360611       230.51278      331.91816      303.32689      331.25828      298.97279      54936.516      15556.643      33           
   4331000  -2480.2876      20.394269     -2500.6819      1.360611       220.05151      377.4705       296.73861      297.12978      291.1807       56423.852      15977.819      27           
   4332000  -2480.2956      20.390852     -2500.6864      1.360611       220.01464      326.71293      313.50453      274.28711      318.70655      55496.82       15715.307      28           
   4333000  -2479.934       19.709835     -2499.6439      1.360611       212.66656      201.73199      303.38506      281.28751      312.15782      56294.497      15941.189      30           
   4334000  -2479.3871      19.448465     -2498.8355      1.360611       209.8464       224.97687      267.82529      315.06222      330.4123       56097.325      15885.355      28           
   4335000  -2478.7493      20.736709     -2499.486       1.360611       223.74639      254.21341      316.62106      293.52242      312.7581       56781.266      16079.03       22           
   4336000  -2478.3824      20.735673     -2499.118       1.360611       223.73521      384.98825      307.26621      293.35265      275.9442       56235.714      15924.544      34           
   4337000  -2479.19        20.887134     -2500.0771      1.360611       225.36946      253.61558      333.57058      282.76589      273.45273      55466.511      15706.725      23           
   4338000  -2480.2522      20.442772     -2500.6949      1.360611       220.57485      224.63512      300.24074      316.26789      280.01374      56308.129      15945.049      24           
   4339000  -2480.5001      19.718055     -2500.2182      1.360611       212.75525      274.37841      285.66381      305.65972      259.4819       56107.215      15888.156      25           
   4340000  -2479.5909      20.190827     -2499.7817      1.360611       217.85639      405.35597      308.77718      280.45133      244.38479      56612.271      16031.175      21           
   4341000  -2478.9357      20.083523     -2499.0192      1.360611       216.69859      302.79272      285.99759      319.13006      247.49418      55256.123      15647.148      26           
   4342000  -2480.6131      19.753299     -2500.3664      1.360611       213.13552      333.81304      284.72359      301.11074      268.25535      55648.799      15758.344      20           
   4343000  -2479.1622      20.471526     -2499.6337      1.360611       220.8851       273.11705      307.22409      302.13891      276.75084      54882.914      15541.464      21           
   4344000  -2479.4539      20.704319     -2500.1582      1.360611       223.39691      302.40486      303.14748      316.4643       265.58824      56342.935      15954.906      22           
   4345000  -2478.4105      21.120338     -2499.5308      1.360611       227.88569      265.2334       324.78738      301.92825      285.47834      55659.621      15761.408      20           
   4346000  -2478.9446      20.338759     -2499.2834      1.360611       219.45256      284.18233      296.12063      310.97556      279.60434      55694.854      15771.385      19           
   4347000  -2478.4015      21.375488     -2499.777       1.360611       230.63873      352.98345      332.27825      292.2205       283.24425      56337.268      15953.301      21           
   4348000  -2477.4411      21.116124     -2498.5573      1.360611       227.84023      283.52142      313.22602      314.76255      293.31168      55422.3        15694.205      19           
   4349000  -2478.4857      20.285252     -2498.771       1.360611       218.87523      329.74216      300.43344      292.68617      299.38374      56896.847      16111.76       25           
   4350000  -2481.102       20.264681     -2501.3667      1.360611       218.65327      305.46241      295.62061      304.46458      286.82882      55023.344      15581.231      25           
   4351000  -2479.3885      20.462304     -2499.8508      1.360611       220.7856       292.2202       293.87455      316.25953      289.55485      57145.76       16182.246      24           
   4352000  -2480.6057      20.119067     -2500.7248      1.360611       217.08212      208.35451      311.14824      280.95329      314.32805      55220.767      15637.136      22           
   4353000  -2479.6975      19.697866     -2499.3953      1.360611       212.53741      265.71484      281.30938      301.48295      308.44623      55704.574      15774.138      21           
   4354000  -2478.298       21.022585     -2499.3206      1.360611       226.83095      245.82116      321.48802      299.85458      306.97302      54852.724      15532.915      20           
   4355000  -2479.1498      20.09115      -2499.241       1.360611       216.7809       314.87284      307.18011      276.40591      302.60327      55791.917      15798.871      21           
   4356000  -2479.5632      20.16208      -2499.7253      1.360611       217.54622      240.74209      299.0766       297.47812      307.58326      56073.383      15878.575      20           
   4357000  -2478.968       20.449537     -2499.4175      1.360611       220.64784      259.63758      297.50864      307.94022      312.44649      54910.691      15549.33       17           
   4358000  -2479.4855      19.642362     -2499.1279      1.360611       211.93853      267.22572      279.86308      301.10168      308.35822      56775.066      16077.274      18           
   4359000  -2480.4614      19.788964     -2500.2504      1.360611       213.52035      244.5996       282.95911      304.1421       315.42824      55974.917      15850.692      22           
   4360000  -2480.8332      19.063728     -2499.8969      1.360611       205.69514      215.74264      275.90209      290.6526       300.66748      56445.964      15984.081      21           
   4361000  -2479.0665      21.130864     -2500.1974      1.360611       227.99928      280.19528      310.55132      316.49744      308.10785      55998.064      15857.247      20           
   4362000  -2477.6326      22.008894     -2499.6415      1.360611       237.4731       318.83416      302.50184      358.46026      317.16638      56701.007      16056.303      25           
   4363000  -2478.6015      20.232689     -2498.8342      1.360611       218.30808      252.87335      294.1861       305.55266      317.19032      54756.993      15505.807      23           
   4364000  -2478.429       20.327547     -2498.7566      1.360611       219.33158      236.78076      295.05749      311.78163      306.21738      57025.502      16148.192      22           
   4365000  -2478.9547      20.293983     -2499.2487      1.360611       218.96943      300.55069      290.88432      311.84477      294.14544      55624.332      15751.415      24           
   4366000  -2479.9198      19.942451     -2499.8622      1.360611       215.17645      311.12282      289.67581      296.97654      296.43549      55309.603      15662.292      28           
   4367000  -2479.8583      20.689246     -2500.5475      1.360611       223.23428      293.49986      305.34463      303.35383      317.44277      55087.703      15599.456      26           
   4368000  -2478.7843      20.698745     -2499.483       1.360611       223.33676      352.54012      307.35729      289.32973      335.81564      55326.187      15666.988      28           
   4369000  -2479.9764      20.222981     -2500.1994      1.360611       218.20333      275.15365      307.10064      284.58286      314.21098      56140.181      15897.491      26           
   4370000  -2479.4985      19.9885       -2499.487       1.360611       215.67331      258.3141       282.75376      311.15         323.89941      55969.167      15849.064      25           
   4371000  -2482.588       18.266404     -2500.8544      1.360611       197.09212      271.8121       258.24663      279.04598      298.06987      56249.911      15928.564      24           
   4372000  -2481.6659      19.649629     -2501.3155      1.360611       212.01694      336.67434      284.58164      289.76299      295.94823      56433.439      15980.534      25           
   4373000  -2479.5172      19.927328     -2499.4445      1.360611       215.01327      265.28612      279.10774      325.23699      259.28472      57040.051      16152.312      26           
   4374000  -2480.0552      20.314531     -2500.3697      1.360611       219.19115      291.64806      303.4502       298.559        275.89894      55118.908      15608.292      33           
   4375000  -2481.0709      19.626347     -2500.6972      1.360611       211.76573      223.25092      290.71854      299.58668      270.81883      57880.327      16390.257      28           
   4376000  -2479.171       20.536889     -2499.7079      1.360611       221.59036      285.68357      300.20053      308.42322      303.24576      55490.888      15713.627      27           
   4377000  -2478.9087      20.630673     -2499.5394      1.360611       222.60227      277.47799      300.89468      317.82375      276.2181       55580.808      15739.09       27           
   4378000  -2480.8714      19.697932     -2500.5693      1.360611       212.53812      267.05784      286.77768      299.47455      284.61496      55835.824      15811.305      25           
   4379000  -2480.6454      19.798855     -2500.4443      1.360611       213.62707      268.56859      275.6092       316.98278      297.28608      55177.962      15625.015      22           
   4380000  -2479.8227      20.125029     -2499.9477      1.360611       217.14644      327.80619      312.73579      273.58886      277.63733      57162.24       16186.912      19           
   4381000  -2479.6005      19.985998     -2499.5865      1.360611       215.64632      222.16314      290.36892      316.04945      263.25696      55723.121      15779.39       24           
   4382000  -2478.527       20.392483     -2498.9195      1.360611       220.03224      261.30369      302.75883      305.71157      282.58155      56186.341      15910.562      24           
   4383000  -2479.8596      20.754171     -2500.6138      1.360611       223.93481      289.32557      322.69661      295.04202      247.35192      55452.999      15702.898      27           
   4384000  -2478.8649      19.317074     -2498.182       1.360611       208.42871      259.59794      295.50062      279.39226      247.98813      56052.437      15872.644      21           
   4385000  -2478.7643      20.231457     -2498.9958      1.360611       218.29479      344.44751      309.11594      284.63514      263.18063      56340.977      15954.351      20           
   4386000  -2479.3308      20.118734     -2499.4495      1.360611       217.07852      291.58296      276.84168      328.85759      282.72888      56671.466      16047.938      21           
   4387000  -2480.936       19.30976      -2500.2458      1.360611       208.3498       320.78063      275.09211      285.50624      322.76899      55912.006      15832.878      24           
   4388000  -2481.1003      19.106874     -2500.2072      1.360611       206.16068      183.07938      279.85537      283.74001      328.67417      55451.096      15702.359      20           
   4389000  -2478.7223      20.151441     -2498.8738      1.360611       217.43142      280.76222      299.38505      286.31576      338.15155      55693.225      15770.924      21           
   4390000  -2478.3513      21.336394     -2499.6877      1.360611       230.21691      190.60233      311.91858      327.47968      325.73511      56894.77       16111.172      19           
   4391000  -2478.9073      20.278478     -2499.1858      1.360611       218.80214      237.48434      299.40845      300.93415      315.09983      55846.587      15814.352      21           
   4392000  -2478.502       20.410092     -2498.9121      1.360611       220.22223      305.85325      287.56693      313.07483      328.73168      55602.012      15745.095      23           
   4393000  -2480.8837      19.707128     -2500.5908      1.360611       212.63734      273.6091       290.83474      284.33892      319.68835      55483.951      15711.663      17           
   4394000  -2478.5244      20.68227      -2499.2067      1.360611       223.159        240.11122      301.88516      309.72691      324.76144      56125.322      15893.283      17           
   4395000  -2478.48        21.180091     -2499.6601      1.360611       228.53042      393.08498      306.19809      311.06484      319.61104      55768.528      15792.248      20           
   4396000  -2477.8607      21.266359     -2499.127       1.360611       229.46124      251.70143      307.98803      324.39543      333.98796      55432.885      15697.202      24           
   4397000  -2479.578       20.846872     -2500.4248      1.360611       224.93504      214.03259      318.94502      298.73994      317.41792      55357.773      15675.933      23           
   4398000  -2479.5769      21.195427     -2500.7723      1.360611       228.6959       274.93905      311.83677      316.47087      318.1023       55827.276      15808.884      24           
   4399000  -2479.6712      20.502928     -2500.1742      1.360611       221.22392      310.15281      302.78258      301.98648      291.10795      56331.236      15951.593      27           
   4400000  -2478.6022      20.481078     -2499.0833      1.360611       220.98816      257.38358      310.96238      300.18417      269.1213       55278.543      15653.497      24           
   4401000  -2480.0407      20.822214     -2500.8629      1.360611       224.66898      317.6382       303.99825      313.77618      284.26482      56639.454      16038.873      26           
   4402000  -2480.2141      20.047408     -2500.2615      1.360611       216.30893      327.22986      298.97298      290.01249      277.23263      55342.614      15671.64       23           
   4403000  -2480.1413      20.384146     -2500.5255      1.360611       219.94228      315.82868      305.99053      295.99425      269.78975      55691.983      15770.572      25           
   4404000  -2480.6163      19.235416     -2499.8517      1.360611       207.54763      274.03509      286.26079      280.7836       283.31128      55850.4        15815.432      29           
   4405000  -2481.6704      19.488883     -2501.1593      1.360611       210.28251      257.98141      291.68778      283.19024      298.29701      56397.294      15970.299      30           
   4406000  -2479.6815      20.839502     -2500.521       1.360611       224.85552      286.06917      305.4003       319.0835       266.57564      56632.102      16036.791      34           
   4407000  -2480.6198      19.93985      -2500.5596      1.360611       215.14839      267.14136      303.15089      281.93927      306.48076      56247.866      15927.985      29           
   4408000  -2478.7068      19.908023     -2498.6148      1.360611       214.80497      176.20534      322.02484      265.60091      298.65161      55678.221      15766.675      26           
   4409000  -2480.6685      19.216312     -2499.8848      1.360611       207.34151      262.15828      289.9278       272.60831      306.48091      55171.931      15623.307      30           
   4410000  -2480.4714      19.93953      -2500.4109      1.360611       215.14494      292.41117      299.55293      280.51419      323.70559      56459.273      15987.85       29           
   4411000  -2480.455       20.173622     -2500.6286      1.360611       217.67076      292.1527       303.98607      283.30782      328.37242      56056.871      15873.899      32           
   4412000  -2479.4382      20.00708      -2499.4453      1.360611       215.87379      367.28984      290.72175      282.33831      345.96982      56129.333      15894.419      23           
   4413000  -2477.2629      20.978588     -2498.2415      1.360611       226.35623      270.45168      307.93382      309.16647      337.42271      56894.332      16111.047      21           
   4414000  -2479.0846      21.477186     -2500.5618      1.360611       231.73604      253.20024      332.85685      294.79042      339.01927      56678.912      16050.046      22           
   4415000  -2478.6401      21.037918     -2499.678       1.360611       226.9964       400.66797      305.18398      299.55537      337.77602      55429.118      15696.136      26           
   4416000  -2477.9308      20.823503     -2498.7543      1.360611       224.68289      325.03166      296.46674      318.26361      314.87937      55733.161      15782.233      22           
   4417000  -2478.1748      20.852664     -2499.0275      1.360611       224.99753      297.38257      296.45576      317.80194      337.71783      56069.508      15877.478      23           
   4418000  -2479.4016      20.845319     -2500.2469      1.360611       224.91828      321.18445      284.63581      330.08301      349.27712      56130.751      15894.82       22           
   4419000  -2479.5909      20.043118     -2499.6341      1.360611       216.26263      310.37651      294.99458      279.62533      363.47382      54722.539      15496.05       23           
   4420000  -2478.8042      21.524806     -2500.329       1.360611       232.24985      381.73217      310.50002      307.95774      373.33962      56202.671      15915.186      27           
   4421000  -2480.6691      20.120264     -2500.7894      1.360611       217.09503      260.65761      293.04794      288.9878       389.62034      56020.371      15863.564      26           
   4422000  -2479.1832      19.835423     -2499.0186      1.360611       214.02163      262.07867      297.77878      276.95315      367.9746       57690.009      16336.363      31           
   4423000  -2477.1862      22.659627     -2499.8458      1.360611       244.49443      284.09392      334.04257      342.25453      325.75879      55728.111      15780.803      28           
   4424000  -2479.1693      21.159363     -2500.3287      1.360611       228.30677      300.95093      317.40181      308.71615      292.49197      56002.787      15858.584      32           
   4425000  -2479.3284      20.94755      -2500.2759      1.360611       226.02134      382.72815      299.02868      318.11019      272.03909      55794.965      15799.734      29           
   4426000  -2480.4881      20.239279     -2500.7273      1.360611       218.37918      284.38268      303.25805      297.02207      273.20232      56241.774      15926.26       29           
   4427000  -2479.8895      20.018747     -2499.9082      1.360611       215.99968      267.34479      291.92613      306.86599      275.48405      56476.054      15992.602      27           
   4428000  -2479.1164      20.720194     -2499.8366      1.360611       223.56819      341.94332      281.3287       338.67054      288.74016      55240.445      15642.708      27           
   4429000  -2478.8513      20.834016     -2499.6853      1.360611       224.79632      344.52255      316.2639       289.90405      297.20907      57058.142      16157.435      28           
   4430000  -2479.0296      20.598776     -2499.6284      1.360611       222.25812      266.55061      314.71868      295.58898      284.21436      54982.745      15569.734      26           
   4431000  -2479.9226      20.420138     -2500.3427      1.360611       220.33063      275.12769      313.52268      282.76695      320.63756      56637.232      16038.243      29           
   4432000  -2480.6767      19.673286     -2500.35        1.360611       212.27219      287.75686      300.82192      268.03507      328.70856      54515.173      15437.329      32           
   4433000  -2479.6608      20.756987     -2500.4178      1.360611       223.96519      230.44502      317.31426      296.06923      324.76036      57020.006      16146.635      27           
   4434000  -2480.212       20.36818      -2500.5802      1.360611       219.77001      309.4675       290.36194      305.80208      340.49594      54944.994      15559.044      26           
   4435000  -2479.4356      20.480691     -2499.9163      1.360611       220.98399      284.12886      299.71325      301.84487      334.00675      55763.4        15790.796      29           
   4436000  -2480.8426      19.946619     -2500.7892      1.360611       215.22142      322.15215      267.32481      319.52443      341.14494      56027.385      15865.55       31           
   4437000  -2480.1189      20.186459     -2500.3053      1.360611       217.80927      336.28309      287.43281      296.37516      357.92562      53878.653      15257.083      34           
   4438000  -2478.4133      21.144063     -2499.5573      1.360611       228.14169      293.74094      325.52996      287.39923      355.11555      56444.536      15983.677      32           
   4439000  -2479.3772      21.373635     -2500.7508      1.360611       230.61874      268.40266      319.31061      308.82849      350.86729      55563.808      15734.276      27           
   4440000  -2478.5688      20.564812     -2499.1337      1.360611       221.89165      252.25803      298.54633      312.85094      329.71711      57574.014      16303.516      29           
   4441000  -2479.0017      20.047571     -2499.0493      1.360611       216.31069      270.17162      294.62777      296.11703      319.46392      54115.374      15324.116      30           
   4442000  -2480.0397      20.349464     -2500.3891      1.360611       219.56807      214.28575      302.76219      305.59571      319.47746      55540.868      15727.78       31           
   4443000  -2481.214       19.808335     -2501.0223      1.360611       213.72936      300.11776      299.37885      273.92415      322.65121      56167.455      15905.214      25           
   4444000  -2480.283       20.129961     -2500.413       1.360611       217.19966      262.36809      294.49697      298.83609      328.09444      57249.867      16211.726      26           
   4445000  -2479.0701      21.097935     -2500.1681      1.360611       227.64397      340.8186       298.59247      323.46822      317.36455      56308.269      15945.089      29           
   4446000  -2480.0921      20.241975     -2500.3341      1.360611       218.40828      324.04713      291.87307      298.7167       325.5272       55212.439      15634.778      29           
   4447000  -2481.0039      20.27934      -2501.2833      1.360611       218.81144      302.73093      297.49137      294.39544      331.02556      56551.595      16013.993      29           
   4448000  -2479.4766      20.835774     -2500.3124      1.360611       224.81529      347.86956      294.33398      311.85674      351.02468      54906.248      15548.072      28           
   4449000  -2478.8035      20.840698     -2499.6442      1.360611       224.86842      304.09967      317.21203      287.12773      336.58342      55864.318      15819.373      26           
   4450000  -2477.6527      21.631953     -2499.2847      1.360611       233.40595      337.46459      319.38816      316.99616      310.50662      55693.623      15771.037      25           
   4451000  -2477.6118      22.563283     -2500.1751      1.360611       243.45489      340.94464      311.08213      363.33338      330.79933      55528.065      15724.155      22           
   4452000  -2480.4847      19.812858     -2500.2976      1.360611       213.77816      266.55381      301.13208      272.33383      334.21508      55953.162      15844.532      21           
   4453000  -2479.2954      20.749342     -2500.0447      1.360611       223.8827       278.68576      303.7492       308.16761      323.78339      56708.405      16058.398      24           
   4454000  -2477.7573      21.254991     -2499.0123      1.360611       229.33858      391.13583      310.69979      307.71648      322.88607      55005.869      15576.282      18           
   4455000  -2477.5426      21.51704      -2499.0596      1.360611       232.16606      361.41732      321.71259      291.47381      383.08135      56047.358      15871.206      21           
   4456000  -2478.3484      21.352388     -2499.7008      1.360611       230.38948      396.01707      298.33905      309.47376      411.58764      56153.827      15901.355      22           
   4457000  -2478.6847      21.228177     -2499.9129      1.360611       229.04927      274.79246      304.02508      310.22097      423.48651      55825.007      15808.242      26           
   4458000  -2481.1558      19.991033     -2501.1468      1.360611       215.70064      259.0535       284.86166      292.64853      413.96449      56853.306      16099.43       30           
   4459000  -2479.159       21.407672     -2500.5667      1.360611       230.986        241.66655      320.04911      301.11166      422.16615      57203.165      16198.501      28           
   4460000  -2478.4469      21.622504     -2500.0694      1.360611       233.30401      330.98738      311.98695      316.07529      386.68361      56393.41       15969.199      30           
   4461000  -2479.9062      21.006102     -2500.9123      1.360611       226.6531       232.49186      306.14669      317.80851      363.70772      54840.856      15529.555      30           
   4462000  -2480.9889      19.462691     -2500.4516      1.360611       209.99991      283.16436      275.58813      295.30396      342.12515      55665.128      15762.968      34           
   4463000  -2479.9737      20.254599     -2500.2283      1.360611       218.54449      316.89277      295.1356       293.30154      346.13644      54914.773      15550.486      34           
   4464000  -2477.9987      21.01167      -2499.0103      1.360611       226.71319      257.81015      318.54863      292.37064      396.42064      57170.222      16189.173      33           
   4465000  -2478.0464      22.16049      -2500.2069      1.360611       239.1088       278.77881      315.8153       335.77913      419.12129      56903.867      16113.748      31           
   4466000  -2480.0818      20.052373     -2500.1342      1.360611       216.3625       326.37414      282.01722      289.95708      430.61559      54874.684      15539.134      33           
   4467000  -2477.681       21.801863     -2499.4829      1.360611       235.23926      274.30237      320.38501      310.05629      439.62802      56418.8        15976.389      29           
   4468000  -2479.506       20.333401     -2499.8394      1.360611       219.39475      260.91859      305.00606      282.11482      392.61431      56180.073      15908.787      29           
   4469000  -2478.2411      21.542453     -2499.7835      1.360611       232.44026      336.65303      315.3688       308.05053      375.60446      56705.676      16057.625      32           
   4470000  -2478.2742      21.122009     -2499.3962      1.360611       227.90373      412.82355      291.15624      331.26252      290.27521      55938.217      15840.3        26           
   4471000  -2479.27        20.30886      -2499.5789      1.360611       219.12996      363.31723      295.34349      289.01131      334.99153      55374.672      15680.718      29           
   4472000  -2478.5694      22.010817     -2500.5802      1.360611       237.49385      438.57703      336.05914      289.69943      326.59551      55839.572      15812.366      29           
   4473000  -2480.4668      20.787022     -2501.2539      1.360611       224.28927      305.38038      292.9795       313.49762      390.64131      56933.329      16122.09       34           
   4474000  -2479.3219      21.222455     -2500.5444      1.360611       228.98753      308.15544      311.09597      302.79876      389.24857      55508.988      15718.753      29           
   4475000  -2478.4644      20.874996     -2499.3394      1.360611       225.23849      348.45109      281.51279      327.27472      384.21924      56213.185      15918.164      25           
   4476000  -2477.3256      22.737023     -2500.0626      1.360611       245.32952      308.41576      337.50281      322.64999      402.09953      56913.51       16116.478      27           
   4477000  -2478.7545      21.060386     -2499.8149      1.360611       227.23882      352.35761      301.06459      305.7996       378.19557      55766.597      15791.701      32           
   4478000  -2479.0147      19.2508       -2498.2655      1.360611       207.71363      240.41411      291.24633      264.87174      374.90422      55905.67       15831.083      31           
   4479000  -2479.6134      20.138936     -2499.7524      1.360611       217.2965       265.172        287.3792       305.14865      353.63514      55809.131      15803.746      28           
   4480000  -2480.4626      19.161527     -2499.6241      1.360611       206.75038      246.09994      269.90479      293.05903      345.09761      57070.023      16160.799      26           
   4481000  -2479.407       20.68601      -2500.093       1.360611       223.19935      311.72428      300.29111      303.69776      343.08009      55314.243      15663.606      26           
   4482000  -2479.7919      20.672975     -2500.4649      1.360611       223.05871      308.4689       317.79971      279.78469      331.32752      55486.974      15712.519      28           
   4483000  -2481.31        19.008986     -2500.319       1.360611       205.10449      324.70112      277.85923      267.73591      332.60095      55843.841      15813.575      26           
   4484000  -2479.78        20.610049     -2500.39        1.360611       222.37975      420.99213      305.72874      283.70641      320.02073      55815.213      15805.468      23           
   4485000  -2479.4504      20.744851     -2500.1953      1.360611       223.83425      369.68093      269.89814      345.14038      336.16487      57364.164      16244.092      23           
   4486000  -2480.1568      19.897203     -2500.054       1.360611       214.68823      353.89905      284.10074      291.56134      332.39367      56461.781      15988.56       21           
   4487000  -2481.5282      19.829629     -2501.3578      1.360611       213.95912      316.83439      269.91014      303.10987      387.80691      56805.467      16085.883      27           
   4488000  -2479.49        20.707857     -2500.1979      1.360611       223.43508      356.30796      301.82077      294.37865      352.88945      54654.138      15476.681      25           
   4489000  -2479.7919      20.990097     -2500.782       1.360611       226.48041      302.54262      323.62361      280.82058      357.6023       56660.657      16044.876      29           
   4490000  -2478.2825      21.607847     -2499.8904      1.360611       233.14585      291.13204      311.26868      328.08246      346.18859      56227.24       15922.144      29           
   4491000  -2478.1241      20.787874     -2498.9119      1.360611       224.29846      340.90336      312.09645      284.3624       353.49566      55686.263      15768.953      28           
   4492000  -2479.5721      20.402615     -2499.9747      1.360611       220.14156      322.10372      305.68534      278.00722      369.83342      55978.791      15851.789      28           
   4493000  -2478.7179      21.302499     -2500.0204      1.360611       229.8512       362.57898      304.53248      313.07325      354.77914      55786.482      15797.332      27           
   4494000  -2477.6277      20.690897     -2498.3186      1.360611       223.25208      324.64922      302.78459      303.028        318.12805      57143.893      16181.717      23           
   4495000  -2478.7589      21.085736     -2499.8446      1.360611       227.51235      280.08176      301.45116      327.4275       312.19361      55334.741      15669.411      22           
   4496000  -2476.7298      22.239888     -2498.9697      1.360611       239.9655       292.90997      315.39257      353.04525      312.08235      57301.167      16226.253      22           
   4497000  -2479.135       20.125296     -2499.2603      1.360611       217.14932      240.24945      318.17226      270.22575      306.66519      54906.15       15548.044      25           
   4498000  -2479.2487      19.468211     -2498.717       1.360611       210.05947      316.47521      278.48575      288.18207      322.51114      57473.022      16274.918      25           
   4499000  -2477.7386      21.037266     -2498.7759      1.360611       226.98937      242.31896      301.36488      320.10972      354.82101      55734.828      15782.705      21           
   4500000  -2478.8879      20.510454     -2499.3984      1.360611       221.30513      290.73211      298.03921      297.57897      361.4852       55368.716      15679.031      26           
   4501000  -2478.7681      20.618594     -2499.3867      1.360611       222.47195      347.37575      297.44824      300.5059       339.92139      56609.83       16030.484      26           
   4502000  -2479.9372      20.38486      -2500.3221      1.360611       219.94998      378.10944      281.55908      311.91448      340.71167      55507.312      15718.278      21           
   4503000  -2480.9922      20.507332     -2501.4995      1.360611       221.27145      400.01746      292.19571      296.36188      348.77846      56783.928      16079.784      23           
   4504000  -2478.9394      21.330997     -2500.2704      1.360611       230.15868      320.41112      307.971        315.2307       354.42387      56263.865      15932.515      29           
   4505000  -2479.7457      20.583188     -2500.3289      1.360611       222.08992      227.25852      307.84636      294.98525      353.35593      56507.593      16001.533      22           
   4506000  -2479.4701      20.389424     -2499.8595      1.360611       219.99923      330.11656      288.21502      308.58328      335.50486      56107.003      15888.096      28           
   4507000  -2479.8936      20.648278     -2500.5419      1.360611       222.79223      299.66771      296.12487      312.47479      327.26946      57762.628      16356.927      24           
   4508000  -2477.7002      21.556741     -2499.2569      1.360611       232.59443      300.65452      314.30034      323.4006       327.03117      56284.605      15938.388      28           
   4509000  -2479.0204      20.762531     -2499.783       1.360611       224.02501      318.83967      319.9666       282.86056      310.17697      57110.699      16172.317      26           
   4510000  -2480.7091      19.931482     -2500.6406      1.360611       215.0581       294.96651      312.27662      258.46093      338.13922      55770.787      15792.888      29           
   4511000  -2479.0395      21.320988     -2500.3605      1.360611       230.05069      363.66267      305.18929      317.04451      335.40759      55414.694      15692.051      24           
   4512000  -2480.5715      19.487291     -2500.0588      1.360611       210.26533      342.21673      279.78836      282.21815      333.01811      56086.457      15882.278      25           
   4513000  -2479.7126      20.262649     -2499.9752      1.360611       218.63134      301.93673      296.8029       295.12341      326.80166      55650.687      15758.878      23           
   4514000  -2480.2762      20.69869      -2500.9748      1.360611       223.33617      306.29853      307.36693      298.3262       320.60191      56839.613      16095.552      25           
   4515000  -2480.3275      20.306391     -2500.6339      1.360611       219.10332      306.2468       296.73091      297.0713       325.35789      54848.415      15531.695      27           
   4516000  -2479.3996      20.713846     -2500.1134      1.360611       223.49971      382.57039      300.52884      298.20438      326.517        57551.778      16297.22       26           
   4517000  -2479.1528      21.149274     -2500.3021      1.360611       228.19791      329.39441      304.55761      320.82772      305.1825       55754.738      15788.343      27           
   4518000  -2480.1428      19.787932     -2499.9308      1.360611       213.50921      289.12449      280.85411      300.95061      332.56936      56331.235      15951.593      32           
   4519000  -2481.1454      19.714557     -2500.8599      1.360611       212.71751      401.9445       284.44423      277.70608      309.15842      55681.596      15767.631      33           
   4520000  -2480.9495      19.713577     -2500.6631      1.360611       212.70693      360.2362       288.28732      276.90812      322.76782      55686.683      15769.072      32           
   4521000  -2479.2561      21.152869     -2500.409       1.360611       228.2367       389.46432      304.90435      307.44807      328.71598      56076.721      15879.521      28           
   4522000  -2480.2107      20.23721      -2500.4479      1.360611       218.35686      344.22029      283.52681      306.19301      335.73528      56199.756      15914.361      26           
   4523000  -2479.4918      20.48269      -2499.9745      1.360611       221.00556      300.16864      301.86373      292.15846      347.84688      55595.67       15743.299      20           
   4524000  -2479.1627      20.299376     -2499.4621      1.360611       219.02763      292.196        301.12613      290.2694       327.53398      56084.762      15881.798      17           
   4525000  -2479.1799      19.525605     -2498.7055      1.360611       210.67874      312.40791      273.40635      302.47482      304.12046      56126.753      15893.688      19           
   4526000  -2480.3836      19.954885     -2500.3384      1.360611       215.31062      260.7578       299.51084      288.95256      294.35454      55637.383      15755.111      18           
   4527000  -2477.7657      21.544681     -2499.3103      1.360611       232.4643       263.86657      309.66596      336.03091      307.9044       56136.958      15896.578      18           
   4528000  -2477.7291      20.555489     -2498.2846      1.360611       221.79105      307.09428      284.77491      329.88683      299.86825      55837.897      15811.892      17           
   4529000  -2478.6375      21.270318     -2499.9078      1.360611       229.50396      362.91858      298.42461      329.35723      319.47572      56966.396      16131.454      19           
   4530000  -2479.4671      20.516433     -2499.9835      1.360611       221.36964      370.40271      291.86642      300.5704       345.68476      55991.361      15855.349      22           
   4531000  -2478.4864      20.596631     -2499.0831      1.360611       222.23497      421.59649      290.9409       307.48971      325.65651      55526.126      15723.606      16           
   4532000  -2478.997       20.27363      -2499.2706      1.360611       218.74983      331.75986      302.2166       282.00498      333.8279       55517.994      15721.303      22           
   4533000  -2479.484       20.253894     -2499.7379      1.360611       218.53688      389.46089      298.81664      284.97609      320.72396      56204.142      15915.603      17           
   4534000  -2477.4863      21.122418     -2498.6087      1.360611       227.90814      418.28067      308.5235       305.37969      307.08321      56706.516      16057.863      20           
   4535000  -2478.7908      20.300539     -2499.0913      1.360611       219.04018      339.51728      300.69176      292.23306      299.82355      55432.445      15697.078      22           
   4536000  -2478.1328      21.528125     -2499.6609      1.360611       232.28566      347.57004      324.34467      310.60667      291.57708      56650.942      16042.126      15           
   4537000  -2478.5694      20.917318     -2499.4867      1.360611       225.69514      398.78879      312.44076      298.621        284.02066      55762.044      15790.412      20           
   4538000  -2479.8337      19.889353     -2499.7231      1.360611       214.60353      250.62693      304.02511      278.24347      309.81635      55716.549      15777.529      22           
   4539000  -2478.7223      20.475903     -2499.1982      1.360611       220.93233      346.58847      284.42789      319.92058      315.19737      56605.652      16029.301      19           
   4540000  -2480.1289      20.130309     -2500.2593      1.360611       217.20341      292.20418      298.94706      290.05649      315.28642      55752.852      15787.809      25           
   4541000  -2478.6922      20.558232     -2499.2504      1.360611       221.82065      292.20817      315.87455      277.644        340.65924      55855.643      15816.917      25           
   4542000  -2479.891       19.481034     -2499.372       1.360611       210.19782      254.76575      277.25209      294.51479      334.78456      55604.432      15745.78       21           
   4543000  -2478.1459      20.834903     -2498.9808      1.360611       224.80589      255.28035      311.25734      299.92518      333.01332      56011.738      15861.119      19           
   4544000  -2478.7247      20.794857     -2499.5195      1.360611       224.3738       357.78153      295.56933      310.70076      330.01062      55399.715      15687.809      27           
   4545000  -2479.6795      19.360127     -2499.0396      1.360611       208.89325      218.44046      277.71661      294.41779      338.79362      55737.999      15783.603      24           
   4546000  -2479.3771      20.214081     -2499.5912      1.360611       218.1073       271.80629      297.32351      291.90212      347.82878      56336.433      15953.065      23           
   4547000  -2479.3227      20.424249     -2499.747       1.360611       220.37498      291.15956      297.66662      299.64944      337.08154      54890.742      15543.681      22           
   4548000  -2479.4428      20.82022      -2500.263       1.360611       224.64746      394.37476      294.51984      307.42022      334.18135      56257.092      15930.597      27           
   4549000  -2478.782       20.416668     -2499.1987      1.360611       220.29319      277.65235      305.56461      290.89235      335.35575      55268.187      15650.564      27           
   4550000  -2479.9254      20.584206     -2500.5096      1.360611       222.10091      258.88899      309.08066      298.79162      316.75265      56295.743      15941.542      28           
   4551000  -2480.9414      19.525073     -2500.4664      1.360611       210.673        295.2398       298.53781      264.67443      321.93949      56271.674      15934.726      27           
   4552000  -2479.3948      20.308734     -2499.7036      1.360611       219.12859      392.05415      300.48116      284.20189      289.30555      56339.95       15954.06       31           
   4553000  -2480.2623      20.153416     -2500.4157      1.360611       217.45273      324.0762       296.77266      293.72677      291.24536      55699.209      15772.619      32           
   4554000  -2479.7763      20.562466     -2500.3387      1.360611       221.86633      267.02084      303.67229      296.86997      364.0339       55663.307      15762.452      30           
   4555000  -2478.8549      21.000688     -2499.8556      1.360611       226.59469      397.76715      302.14671      300.72347      343.49102      56194.172      15912.78       31           
   4556000  -2479.6145      20.368138     -2499.9827      1.360611       219.76956      301.96734      299.35754      300.72199      302.01102      56248.995      15928.304      24           
   4557000  -2480.6927      20.119407     -2500.8121      1.360611       217.08578      307.33848      287.75116      299.94529      342.13258      56278.889      15936.77       29           
   4558000  -2480.2758      20.597303     -2500.8731      1.360611       222.24222      328.21258      299.31733      300.11134      337.98977      55716.008      15777.376      24           
   4559000  -2480.2893      19.511148     -2499.8004      1.360611       210.52275      328.39506      295.37381      263.93628      322.91018      57182.499      16192.649      25           
   4560000  -2478.1901      21.433054     -2499.6232      1.360611       231.25987      230.14115      316.21177      313.10934      356.26928      55387.636      15684.389      17           
   4561000  -2478.689       20.855016     -2499.544       1.360611       225.02291      325.72814      297.91917      310.93402      344.76374      55855.703      15816.934      18           
   4562000  -2478.8982      21.221501     -2500.1197      1.360611       228.97724      316.19768      312.17586      303.72868      356.97551      56127.466      15893.89       21           
   4563000  -2480.3786      20.28088      -2500.6594      1.360611       218.82806      408.48417      290.25945      287.0647       357.3235       55634.601      15754.323      21           
   4564000  -2478.986       20.608099     -2499.5941      1.360611       222.35871      189.81594      297.54261      312.54308      355.82931      56341.93       15954.621      20           
   4565000  -2479.4569      20.309915     -2499.7668      1.360611       219.14133      341.86447      287.71631      300.8488       353.17601      55945.824      15842.454      18           
   4566000  -2479.5775      20.194047     -2499.7715      1.360611       217.89114      270.49604      283.3762       309.26638      355.48442      56491.213      15996.894      24           
   4567000  -2479.1766      20.101577     -2499.2781      1.360611       216.8934       276.09783      289.89241      296.93583      353.12906      55492.881      15714.192      26           
   4568000  -2477.4914      21.002649     -2498.4941      1.360611       226.61584      282.08383      324.11727      282.73706      347.67076      57206.179      16199.355      21           
   4569000  -2479.1294      20.674674     -2499.8041      1.360611       223.07705      206.79839      296.37832      320.09426      337.36919      55431.84       15696.906      21           
   4570000  -2479.6158      20.254595     -2499.8704      1.360611       218.54444      318.75418      280.88154      310.85927      348.30944      55467.004      15706.864      23           
   4571000  -2478.6648      21.113372     -2499.7782      1.360611       227.81053      333.58517      293.30379      324.07246      362.02688      56481.804      15994.23       18           
   4572000  -2478.8342      21.238034     -2500.0722      1.360611       229.15563      292.55354      315.14424      298.73094      379.85857      56030.293      15866.373      24           
   4573000  -2478.5682      20.843328     -2499.4116      1.360611       224.8968       276.60217      311.98626      284.30406      403.46801      55678.373      15766.718      24           
   4574000  -2479.2755      20.820809     -2500.0963      1.360611       224.65382      284.9392       301.49376      302.97718      388.5719       56015.269      15862.119      28           
   4575000  -2477.6494      20.759201     -2498.4086      1.360611       223.98908      273.23239      297.96855      316.1736       343.00528      55927.641      15837.305      31           
   4576000  -2479.3423      20.865358     -2500.2077      1.360611       225.13449      296.59818      311.63874      296.93134      340.52634      55371.293      15679.761      28           
   4577000  -2479.1319      21.478753     -2500.6106      1.360611       231.75295      324.27035      317.01962      311.12655      335.31194      55829.07       15809.392      31           
   4578000  -2478.358       21.519947     -2499.878       1.360611       232.19743      224.45185      311.63119      334.83915      334.65324      54877.059      15539.806      27           
   4579000  -2479.4127      20.933935     -2500.3466      1.360611       225.87444      270.87927      311.20362      298.34791      374.80923      56498.683      15999.01       27           
   4580000  -2477.8736      20.959793     -2498.8334      1.360611       226.15344      207.79651      305.76791      317.19313      380.51291      55724.573      15779.801      30           
   4581000  -2479.5215      21.134756     -2500.6563      1.360611       228.04127      232.81472      307.04546      317.57469      393.82188      56887.532      16109.122      34           
   4582000  -2480.2587      20.653206     -2500.9119      1.360611       222.84541      261.03364      295.3389       308.8768       406.07226      55067.897      15593.847      31           
   4583000  -2479.4683      21.336628     -2500.805       1.360611       230.21944      289.57422      303.13708      322.03282      396.53657      56350.332      15957          33           
   4584000  -2478.3419      20.763751     -2499.1057      1.360611       224.03817      269.40519      294.09605      313.75665      395.03653      55774.308      15793.885      29           
   4585000  -2480.3838      20.440885     -2500.8247      1.360611       220.55448      272.30059      294.53623      299.1935       400.9087       56569.832      16019.157      31           
   4586000  -2478.2969      21.43437      -2499.7313      1.360611       231.27406      252.98074      294.72901      341.22479      418.9365       56743.595      16068.362      31           
   4587000  -2478.1998      20.883098     -2499.0829      1.360611       225.32591      319.00044      292.02688      314.80847      403.64989      56067.396      15876.88       32           
   4588000  -2479.3671      21.182107     -2500.5492      1.360611       228.55218      281.79321      320.57524      292.30624      396.48632      56735.186      16065.981      33           
   4589000  -2479.7982      20.861176     -2500.6594      1.360611       225.08938      258.05687      312.35584      297.19159      376.903        54576.552      15454.71       32           
   4590000  -2479.9006      21.247156     -2501.1478      1.360611       229.25405      298.93152      305.04546      319.38354      356.98929      56724.425      16062.934      31           
   4591000  -2478.6425      20.967149     -2499.6097      1.360611       226.2328       264.41877      308.50502      305.65878      362.91839      54310.584      15379.395      29           
   4592000  -2479.3991      21.273283     -2500.6724      1.360611       229.53595      214.08513      310.5882       318.36675      370.47434      55227.268      15638.977      24           
   4593000  -2480.5574      19.979887     -2500.5373      1.360611       215.58038      253.88566      286.68942      294.16432      383.18936      55934.141      15839.145      26           
   4594000  -2480.9727      19.867494     -2500.8402      1.360611       214.36768      207.35942      292.48974      285.82399      390.0859       55110.729      15605.976      27           
   4595000  -2479.9415      19.689272     -2499.6308      1.360611       212.44469      218.98093      274.99186      300.99546      392.60505      55676.357      15766.147      24           
   4596000  -2479.0506      20.367974     -2499.4186      1.360611       219.76779      280.41839      297.39539      288.78107      391.12145      56100.566      15886.273      25           
   4597000  -2478.6035      21.141292     -2499.7448      1.360611       228.11179      281.02441      290.56558      328.4325       412.56129      56035.982      15867.984      28           
   4598000  -2479.6293      20.154519     -2499.7838      1.360611       217.46463      248.76463      284.33123      301.39636      408.02167      55158.576      15619.525      26           
   4599000  -2480.3238      19.373737     -2499.6975      1.360611       209.0401       321.83264      275.98879      283.15427      349.64195      56816.142      16088.906      29           
   4600000  -2479.5543      21.17383      -2500.7281      1.360611       228.46287      356.06575      301.80027      311.87224      365.29123      55008.941      15577.152      31           
   4601000  -2480.9805      19.803197     -2500.7837      1.360611       213.67391      313.42529      289.0514       288.36059      317.55117      57233.568      16207.111      32           
   4602000  -2481.3354      18.76095      -2500.0963      1.360611       202.42821      277.63878      267.7648       280.33669      326.38286      54598.691      15460.979      28           
   4603000  -2480.7896      19.599057     -2500.3887      1.360611       211.47127      222.73944      290.64433      287.59489      331.09881      56701.874      16056.548      27           
   4604000  -2479.0398      20.619178     -2499.659       1.360611       222.47825      215.10696      290.04161      331.22287      326.19207      56628.088      16035.654      25           
   4605000  -2479.9196      20.571067     -2500.4906      1.360611       221.95914      266.1423       286.19473      327.54156      333.85879      57286.872      16222.205      26           
   4606000  -2478.6662      20.919512     -2499.5857      1.360611       225.71881      233.97643      308.82943      310.75562      350.15805      55866.113      15819.882      28           
   4607000  -2478.6633      20.719993     -2499.3833      1.360611       223.56603      311.10231      305.93323      294.89391      353.20934      55854.121      15816.486      30           
   4608000  -2478.2774      21.553007     -2499.8304      1.360611       232.55414      234.86262      326.93464      312.42322      333.48326      56424.328      15977.954      27           
   4609000  -2480.1032      19.636772     -2499.74        1.360611       211.87821      266.5228       295.66985      269.22246      363.14543      56014.077      15861.781      25           
   4610000  -2479.961       20.346173     -2500.3072      1.360611       219.53255      319.90195      297.98282      290.83948      348.05692      55893.399      15827.608      24           
   4611000  -2478.871       22.219134     -2501.0901      1.360611       239.74157      351.55331      338.07529      303.46651      354.34919      55158.157      15619.406      30           
   4612000  -2477.1633      20.791153     -2497.9545      1.360611       224.33383      326.62728      292.00875      319.64171      334.14548      56140.899      15897.694      25           
   4613000  -2479.7754      20.415337     -2500.1907      1.360611       220.27883      264.0956       298.55272      302.55665      326.95646      56652.259      16042.498      21           
   4614000  -2478.6634      20.040699     -2498.7041      1.360611       216.23653      333.77764      292.11674      292.22154      312.80135      55943.792      15841.879      21           
   4615000  -2479.442       20.768678     -2500.2107      1.360611       224.09133      335.93648      303.2746       303.05143      320.76284      54899.179      15546.07       27           
   4616000  -2480.698       19.282214     -2499.9803      1.360611       208.05258      329.73603      300.26434      256.14491      279.4873       56573.001      16020.055      22           
   4617000  -2479.559       20.373871     -2499.9329      1.360611       219.83142      290.34524      295.85134      308.59252      296.64228      56265.532      15932.987      24           
   4618000  -2480.9818      19.72079      -2500.7026      1.360611       212.78476      295.5213       292.97126      287.15219      287.12525      56597.173      16026.9        25           
   4619000  -2479.5621      20.457795     -2500.0199      1.360611       220.73694      297.0897       305.69532      295.58482      302.2333       55595.585      15743.275      23           
   4620000  -2479.7346      20.811381     -2500.546       1.360611       224.5521       220.88461      303.98933      322.71363      298.74448      55564.372      15734.436      24           
   4621000  -2479.9455      20.943642     -2500.8892      1.360611       225.97917      379.03924      315.41175      290.44479      296.7865       56153.391      15901.232      29           
   4622000  -2478.5175      21.03662      -2499.5542      1.360611       226.98239      252.42154      310.92582      317.67698      304.13182      54917.091      15551.143      27           
   4623000  -2480.158       19.655217     -2499.8132      1.360611       212.07723      298.74821      274.28312      312.88948      277.02584      56209.21       15917.038      30           
   4624000  -2478.8366      20.371501     -2499.2081      1.360611       219.80584      212.24496      292.49221      324.7635       301.94672      55437.369      15698.472      30           
   4625000  -2480.0235      19.556165     -2499.5797      1.360611       211.00848      240.77045      280.69902      303.56933      308.17682      56135.145      15896.065      31           
   4626000  -2477.3659      22.121563     -2499.4874      1.360611       238.68879      286.68483      330.32424      326.53144      321.99716      55069.377      15594.266      31           
   4627000  -2479.0096      21.3517       -2500.3613      1.360611       230.38206      353.17295      299.94719      325.25146      342.34658      55799.396      15800.989      35           
   4628000  -2478.4945      19.815751     -2498.3103      1.360611       213.80937      373.5306       272.93594      293.26617      375.37317      55787.512      15797.624      34           
   4629000  -2481.2123      19.798068     -2501.0104      1.360611       213.61857      406.72636      285.25307      268.96424      375.36258      55713.514      15776.669      32           
   4630000  -2479.8221      20.41835      -2500.2405      1.360611       220.31134      242.62705      291.18333      307.10019      388.63004      56917.754      16117.68       28           
   4631000  -2478.817       20.289375     -2499.1064      1.360611       218.91971      208.83145      292.61121      304.55335      388.65354      55336.131      15669.804      28           
   4632000  -2479.3763      21.553634     -2500.93        1.360611       232.56091      260.68429      326.37497      299.76391      383.1654       57215.897      16202.107      26           
   4633000  -2478.3657      21.992088     -2500.3578      1.360611       237.29177      314.52092      316.4933       325.51603      383.07264      55611.289      15747.722      25           
   4634000  -2476.2         21.600487     -2497.8005      1.360611       233.06644      356.0267       314.40024      307.35787      383.79993      56944.474      16125.246      27           
   4635000  -2478.5907      21.512516     -2500.1033      1.360611       232.11724      296.8028       321.96396      299.02297      383.81796      55780.48       15795.633      24           
   4636000  -2478.2499      20.917914     -2499.1678      1.360611       225.70157      332.35055      304.11489      298.3193       379.15565      56033.93       15867.403      26           
   4637000  -2478.6652      21.536841     -2500.2021      1.360611       232.37971      282.17961      314.71177      316.15426      364.7686       55828.163      15809.135      25           
   4638000  -2480.1914      20.166329     -2500.3577      1.360611       217.59206      299.58634      283.49595      305.1938       356.16891      55200.943      15631.522      31           
   4639000  -2479.7205      21.091677     -2500.8121      1.360611       227.57645      260.47636      294.22152      334.04617      348.14369      56930.321      16121.239      24           
   4640000  -2479.9387      20.636416     -2500.5751      1.360611       222.66424      237.24479      290.64523      324.90807      348.03136      55235.378      15641.273      27           
   4641000  -2480.752       20.249602     -2501.0016      1.360611       218.49057      357.52799      302.15952      284.01236      302.05054      57355.347      16241.595      27           
   4642000  -2481.2733      19.267774     -2500.541       1.360611       207.89677      336.17446      268.67094      295.02347      310.41779      53735.316      15216.493      24           
   4643000  -2480.5204      20.070344     -2500.5907      1.360611       216.5564       288.10698      300.83971      291.79342      283.46681      56200.848      15914.67       28           
   4644000  -2477.8643      21.224784     -2499.089       1.360611       229.01265      229.10652      313.60295      318.61361      331.5594       54602.385      15462.026      25           
   4645000  -2478.7791      21.311562     -2500.0907      1.360611       229.94898      297.60505      320.14203      312.17963      286.93845      56386.47       15967.234      28           
   4646000  -2480.0225      20.194277     -2500.2168      1.360611       217.89362      288.63077      287.59258      313.8024       297.95703      55285.709      15655.526      36           
   4647000  -2481.2723      20.182892     -2501.4552      1.360611       217.77078      283.27916      302.35032      293.64181      289.80327      55429.513      15696.247      32           
   4648000  -2479.7399      20.63731      -2500.3772      1.360611       222.67389      330.42614      292.63257      318.61582      292.8397       56807.745      16086.528      31           
   4649000  -2480.3559      19.629321     -2499.9852      1.360611       211.79782      263.27933      296.59072      282.84824      284.17013      55658.607      15761.121      26           
   4650000  -2479.6668      20.622893     -2500.2897      1.360611       222.51833      300.66886      303.64477      307.06302      289.86514      57212.122      16201.038      29           
   4651000  -2478.5011      20.798437     -2499.2996      1.360611       224.41243      246.46484      314.91419      307.28268      286.86318      55610.689      15747.552      32           
   4652000  -2477.888       21.20595      -2499.0939      1.360611       228.80944      335.01993      304.9072       324.62474      284.89796      56480.731      15993.926      32           
   4653000  -2479.3393      21.022662     -2500.3619      1.360611       226.83178      329.66304      318.54878      294.18684      306.44127      54675.756      15482.802      33           
   4654000  -2480.0132      20.724319     -2500.7376      1.360611       223.6127       254.69699      313.72602      299.76111      305.64586      57120.878      16175.2        26           
   4655000  -2479.3638      20.443818     -2499.8076      1.360611       220.58614      350.78874      300.02796      293.90656      310.16368      56265          15932.836      30           
   4656000  -2479.4464      20.490581     -2499.937       1.360611       221.0907       361.42605      292.17642      304.8392       313.15522      56576.893      16021.157      31           
   4657000  -2480.0833      19.854611     -2499.9379      1.360611       214.22866      323.61086      277.28563      308.12813      300.60432      55933.071      15838.843      33           
   4658000  -2479.2353      20.663971     -2499.8992      1.360611       222.96155      301.75099      297.21971      313.92864      313.33379      54795.027      15516.577      27           
   4659000  -2478.5185      20.83188      -2499.3504      1.360611       224.77328      278.12189      325.20338      287.42837      290.75751      56387.1        15967.412      30           
   4660000  -2477.9272      21.684805     -2499.612       1.360611       233.97622      240.54025      334.9415       308.89308      318.48696      54261.055      15365.37       29           
   4661000  -2479.243       21.122578     -2500.3656      1.360611       227.90987      296.78298      316.45845      305.61924      312.96612      56914.616      16116.791      31           
   4662000  -2479.4964      20.846196     -2500.3426      1.360611       224.92774      237.42144      294.18988      339.40816      305.23849      54839.213      15529.089      36           
   4663000  -2479.7901      21.240026     -2501.0302      1.360611       229.17712      328.75303      299.31528      328.78959      322.9234       56117.39       15891.037      35           
   4664000  -2480.4922      20.091866     -2500.5841      1.360611       216.78862      249.20729      311.88276      277.62013      319.33473      55165.743      15621.554      34           
   4665000  -2479.775       19.894949     -2499.6699      1.360611       214.66391      312.74762      288.34156      292.53962      321.53222      54537.904      15443.766      29           
   4666000  -2479.5498      20.407151     -2499.957       1.360611       220.1905       268.84228      315.35538      283.12958      307.89923      56310.139      15945.619      31           
   4667000  -2476.8044      22.06413      -2498.8685      1.360611       238.06909      245.62101      329.81331      331.52724      316.22342      55141.199      15614.604      29           
   4668000  -2479.5682      20.305018     -2499.8732      1.360611       219.0885       280.74255      281.63223      319.41662      353.45027      56729.118      16064.263      33           
   4669000  -2480.4597      19.370324     -2499.83        1.360611       209.00327      271.49269      262.82374      310.8235       348.83012      55056.505      15590.621      32           
   4670000  -2480.6631      19.804441     -2500.4676      1.360611       213.68734      310.69884      292.83663      281.37328      329.32305      56796.378      16083.309      33           
   4671000  -2480.3261      20.223984     -2500.5501      1.360611       218.21415      244.59506      298.36834      300.05061      328.11145      55233.179      15640.651      28           
   4672000  -2479.0332      21.56765      -2500.6008      1.360611       232.71213      370.48435      306.89751      320.47758      351.44204      57129.102      16177.528      30           
   4673000  -2478.8637      20.904577     -2499.7683      1.360611       225.55766      244.80049      308.50259      312.17794      335.18004      55667.772      15763.717      29           
   4674000  -2480.7         20.668272     -2501.3682      1.360611       223.00796      267.95695      307.81645      296.73245      355.97546      56442.666      15983.147      29           
   4675000  -2481.5536      19.40912      -2500.9627      1.360611       209.42188      270.23013      281.40575      288.20979      332.2189       56215.009      15918.68       31           
   4676000  -2481.0377      19.718124     -2500.7558      1.360611       212.75599      244.79936      277.36495      317.04082      303.07462      55799.049      15800.891      37           
   4677000  -2479.627       19.92442      -2499.5514      1.360611       214.9819       245.80253      299.37922      294.4321       287.00962      56010.868      15860.873      34           
   4678000  -2481.348       19.145327     -2500.4933      1.360611       206.57559      278.90745      283.70332      278.63312      292.33316      55594.2        15742.883      31           
   4679000  -2479.9677      20.029971     -2499.9976      1.360611       216.12078      343.41086      298.18079      285.67252      287.43046      56514.801      16003.574      26           
   4680000  -2480.2615      20.668387     -2500.9299      1.360611       223.00921      308.70329      300.46362      309.7678       306.28802      55521.325      15722.246      24           
   4681000  -2479.3169      20.688649     -2500.0055      1.360611       223.22783      240.69466      299.37099      321.71166      305.05007      55966.912      15848.425      27           
   4682000  -2480.8379      19.980511     -2500.8184      1.360611       215.58712      365.44585      285.27963      298.13698      293.92689      55922.075      15835.729      27           
   4683000  -2478.7612      20.658077     -2499.4193      1.360611       222.89796      339.92827      301.11316      305.26468      303.71876      56335.447      15952.785      23           
   4684000  -2478.3004      21.083974     -2499.3843      1.360611       227.49333      258.2442       320.85122      303.33375      300.09471      55154.25       15618.3        21           
   4685000  -2478.695       20.86278      -2499.5578      1.360611       225.10669      303.23133      326.81319      285.02894      278.76965      56389.484      15968.087      24           
   4686000  -2478.4237      21.55345      -2499.9771      1.360611       232.55892      297.72625      328.87588      312.88702      271.1722       55776.493      15794.504      24           
   4687000  -2478.3673      20.648474     -2499.0157      1.360611       222.79435      239.04631      321.92841      295.579        255.91166      55131.539      15611.869      22           
   4688000  -2479.703       19.378253     -2499.0813      1.360611       209.08882      222.95833      284.98674      295.94599      280.73096      55798.809      15800.823      27           
   4689000  -2480.3127      19.472075     -2499.7848      1.360611       210.10116      273.81049      287.77559      289.41799      277.26768      55428.929      15696.082      26           
   4690000  -2479.692       20.786411     -2500.4785      1.360611       224.28267      238.54527      310.25754      315.29457      268.04595      57164.441      16187.536      19           
   4691000  -2478.4242      20.731437     -2499.1557      1.360611       223.6895       278.37041      300.75218      323.32926      269.77137      56409.597      15973.783      24           
   4692000  -2479.1427      21.932964     -2501.0757      1.360611       236.65383      307.8441       328.52053      326.10985      279.14243      56831.893      16093.366      21           
   4693000  -2478.7073      20.272181     -2498.9795      1.360611       218.73419      273.28274      306.39672      294.56989      277.8932       55598.938      15744.224      21           
   4694000  -2478.5394      20.64532      -2499.1847      1.360611       222.76031      327.02258      306.10881      307.79047      256.73104      55964.811      15847.831      26           
   4695000  -2479.2288      20.375593     -2499.6044      1.360611       219.84999      286.54926      304.64892      304.3304       257.67288      57157.918      16185.688      24           
   4696000  -2480.2378      20.375639     -2500.6135      1.360611       219.85049      248.38705      314.75307      294.21132      257.26463      55224.043      15638.063      22           
   4697000  -2479.4768      20.052634     -2499.5294      1.360611       216.36531      293.83346      290.96413      313.53262      240.29645      57392.129      16252.011      22           
   4698000  -2480.1909      19.500933     -2499.6918      1.360611       210.41253      291.28501      294.43494      285.18918      244.5505       54851.209      15532.486      26           
   4699000  -2480.4187      19.787526     -2500.2063      1.360611       213.50483      233.31796      309.95234      282.00159      240.32833      57103.912      16170.395      21           
   4700000  -2480.1813      19.921334     -2500.1027      1.360611       214.9486       321.23956      277.83406      326.00887      229.18732      54802.244      15518.621      24           
   4701000  -2480.6029      19.969103     -2500.572       1.360611       215.46402      304.84044      312.74207      278.00631      236.07986      56653.612      16042.882      24           
   4702000  -2480.0445      20.381243     -2500.4257      1.360611       219.91096      313.01571      293.12374      323.82088      213.06955      56314.645      15946.895      30           
   4703000  -2478.3136      21.329696     -2499.6433      1.360611       230.14464      268.8706       341.77695      295.70151      230.3494       54839.24       15529.097      28           
   4704000  -2479.5142      19.556738     -2499.0709      1.360611       211.01466      255.86974      303.84374      279.81115      230.22677      56122.09       15892.368      26           
   4705000  -2480.2097      19.44533      -2499.655       1.360611       209.81258      183.43986      289.60254      306.18133      225.09043      54695.047      15488.265      23           
   4706000  -2479.174       19.88322      -2499.0572      1.360611       214.53735      234.99649      309.5992       287.47349      232.76032      56306.276      15944.525      25           
   4707000  -2480.1117      20.589281     -2500.701       1.360611       222.15566      259.79115      304.85989      315.81096      260.19946      54777.245      15511.541      28           
   4708000  -2480.3652      19.079443     -2499.4447      1.360611       205.86471      292.47034      287.52892      270.59322      277.93275      57180.573      16192.104      30           
   4709000  -2479.659       20.511294     -2500.1702      1.360611       221.3142       343.68501      291.51944      312.80706      297.06348      55271.564      15651.52       29           
   4710000  -2478.43        21.090291     -2499.5202      1.360611       227.5615       275.01067      317.20283      307.34864      314.44384      56789.489      16081.358      35           
   4711000  -2478.572       21.318526     -2499.8905      1.360611       230.02412      307.55716      312.9055       319.65317      298.7067       55717.47       15777.79       34           
   4712000  -2479.7617      20.707692     -2500.4694      1.360611       223.4333       253.90175      307.39279      308.94791      305.00646      54884.675      15541.963      27           
   4713000  -2479.9633      20.286788     -2500.2501      1.360611       218.8918       263.28879      308.15544      293.98921      281.19468      55884.313      15825.036      29           
   4714000  -2479.5628      20.753289     -2500.3161      1.360611       223.92529      251.48341      317.61104      299.77349      286.65632      55080.925      15597.536      28           
   4715000  -2478.9587      20.535991     -2499.4947      1.360611       221.58067      293.9296       310.90696      296.47978      275.67699      56968.859      16132.152      25           
   4716000  -2478.54        19.95478      -2498.4948      1.360611       215.30947      278.92264      287.24376      310.74388      267.79886      54898.752      15545.949      30           
   4717000  -2478.167       20.58513      -2498.7521      1.360611       222.11087      271.03401      311.81651      300.62239      273.92742      56466.37       15989.86       26           
   4718000  -2478.901       21.180085     -2500.0811      1.360611       228.53036      341.78105      315.10069      313.36428      259.70529      54550.51       15447.336      27           
   4719000  -2480.2258      20.429457     -2500.6552      1.360611       220.43118      237.72379      309.6282       307.60125      251.76201      55932.038      15838.55       31           
   4720000  -2478.8891      20.49367      -2499.3828      1.360611       221.12403      297.60729      287.51728      334.33944      248.72597      55545.125      15728.986      24           
   4721000  -2479.8589      20.545196     -2500.4041      1.360611       221.67999      333.62871      300.23206      307.72789      270.28642      55421.397      15693.949      28           
   4722000  -2479.8967      20.849308     -2500.746       1.360611       224.96131      297.8729       302.51292      320.49755      279.08229      55591.311      15742.065      29           
   4723000  -2478.5877      20.455701     -2499.0434      1.360611       220.71435      300.25909      305.37757      301.86655      266.96399      55844.02       15813.625      29           
   4724000  -2479.2239      19.815654     -2499.0395      1.360611       213.80833      215.00563      303.40522      291.34789      264.49272      56800.999      16084.618      29           
   4725000  -2479.676       20.080007     -2499.756       1.360611       216.66066      255.38204      303.26708      296.41317      263.26053      54812.108      15521.414      29           
   4726000  -2479.1209      20.023539     -2499.1445      1.360611       216.05138      214.74398      301.47996      311.17867      217.58386      56140.31       15897.527      27           
   4727000  -2479.5257      20.284124     -2499.8099      1.360611       218.86305      246.32293      298.97645      318.97899      228.06314      55445.378      15700.74       26           
   4728000  -2481.704       19.722113     -2501.4262      1.360611       212.79904      195.8626       303.24851      293.9279       246.59766      56246.212      15927.516      29           
   4729000  -2480.139       20.051278     -2500.1903      1.360611       216.35068      342.14791      293.65511      298.27663      248.01752      55999.246      15857.582      31           
   4730000  -2480.6511      19.3437       -2499.9948      1.360611       208.71601      312.98356      301.31008      263.28256      249.6609       56483.154      15994.612      28           
   4731000  -2480.7434      20.569607     -2501.313       1.360611       221.94338      222.19523      291.83302      339.50418      251.84859      56400.922      15971.326      24           
   4732000  -2481.9761      19.110905     -2501.0871      1.360611       206.20418      264.12373      286.60487      280.87021      257.497        55679.221      15766.958      32           
   4733000  -2480.5183      20.092396     -2500.6106      1.360611       216.79434      248.67989      303.72132      300.71946      249.34025      55925.995      15836.839      34           
   4734000  -2481.4992      19.157592     -2500.6568      1.360611       206.70793      266.93463      294.90603      274.56844      233.33749      56010.691      15860.823      26           
   4735000  -2481.4064      20.066333     -2501.4728      1.360611       216.51312      197.61637      284.73623      334.52682      241.41149      56247.162      15927.785      25           
   4736000  -2479.2333      20.972613     -2500.2059      1.360611       226.29176      269.523        300.56886      337.69351      251.81577      54997.264      15573.846      29           
   4737000  -2480.2519      19.881149     -2500.1331      1.360611       214.51501      288.2848       290.36285      308.36161      239.81709      56304.359      15943.982      23           
   4738000  -2481.5307      19.197661     -2500.7284      1.360611       207.14026      295.21953      294.28921      271.78066      246.34547      55419.014      15693.275      26           
   4739000  -2480.2306      20.190683     -2500.4213      1.360611       217.85484      297.74137      308.03316      290.65851      252.13476      55916.175      15834.058      24           
   4740000  -2480.7715      19.723932     -2500.4954      1.360611       212.81866      266.33582      286.54628      310.41461      233.74589      55866.724      15820.055      25           
   4741000  -2481.9117      19.733391     -2501.6451      1.360611       212.92072      269.29633      300.37305      287.06565      248.81463      55967.773      15848.669      26           
   4742000  -2479.8016      19.894226     -2499.6958      1.360611       214.65611      282.38347      317.90433      267.2064       242.11426      57243.036      16209.792      28           
   4743000  -2480.5031      20.037506     -2500.5406      1.360611       216.20209      256.15178      293.4624       311.11874      249.90206      55945.435      15842.344      26           
   4744000  -2479.9701      19.755784     -2499.7259      1.360611       213.16234      225.98288      291.14472      307.6432       249.50706      57071.225      16161.139      29           
   4745000  -2480.68        19.830925     -2500.5109      1.360611       213.9731       250.27989      289.84591      306.82327      265.17046      55845.282      15813.983      32           
   4746000  -2480.2672      18.308147     -2498.5753      1.360611       197.54252      226.02106      275.74827      266.60689      275.13818      56336.735      15953.15       29           
   4747000  -2478.0515      20.2285       -2498.28        1.360611       218.26289      255.35562      309.46374      291.86167      270.62932      55413.411      15691.688      28           
   4748000  -2479.4764      21.006019     -2500.4825      1.360611       226.65222      338.03694      312.71796      309.32828      255.21052      56119.317      15891.583      33           
   4749000  -2481.6222      19.408785     -2501.031       1.360611       209.41826      297.15207      299.58023      267.40307      268.91776      55453.015      15702.903      28           
   4750000  -2479.9521      19.67575      -2499.6279      1.360611       212.29879      238.18316      283.98955      307.04414      287.45539      55504.763      15717.557      30           
   4751000  -2479.3968      20.058994     -2499.4558      1.360611       216.43393      272.85399      300.30735      295.4501       275.2697       55575.018      15737.451      27           
   4752000  -2478.3728      20.86663      -2499.2394      1.360611       225.14822      308.32206      310.8921       308.20273      273.09476      56035.168      15867.754      29           
   4753000  -2478.99        20.047631     -2499.0377      1.360611       216.31133      284.19589      323.08835      263.14654      259.32042      56267.248      15933.473      29           
   4754000  -2479.999       20.911326     -2500.9103      1.360611       225.63049      249.58965      320.04182      306.62619      262.86262      55690.858      15770.254      23           
   4755000  -2479.7979      20.429452     -2500.2273      1.360611       220.43113      307.53704      290.04968      323.3064       263.62238      56130.774      15894.827      28           
   4756000  -2480.1161      20.174028     -2500.2901      1.360611       217.67514      253.24245      295.9725       308.64555      278.06476      56534.432      16009.133      26           
   4757000  -2481.8651      19.441969     -2501.307       1.360611       209.77632      193.35377      296.48336      285.01698      278.95899      55963.206      15847.376      25           
   4758000  -2479.4492      20.690802     -2500.14        1.360611       223.25106      249.55966      302.18056      323.54531      263.45904      55934.829      15839.34       23           
   4759000  -2481.5368      18.586389     -2500.1232      1.360611       200.54471      266.66791      259.2833       297.07055      269.35968      56157.759      15902.468      24           
   4760000  -2480.5847      19.52719      -2500.1119      1.360611       210.69584      344.5388       289.87748      284.76058      257.87726      56396.989      15970.212      21           
   4761000  -2480.5194      19.539868     -2500.0593      1.360611       210.83264      237.2621       307.97796      266.82799      271.93708      55659.911      15761.491      20           
   4762000  -2478.4294      20.985715     -2499.4151      1.360611       226.43313      324.01368      308.00737      319.29844      262.4136       57098.794      16168.946      20           
   4763000  -2480.383       20.016916     -2500.4         1.360611       215.97992      206.84196      289.80645      317.12029      269.58111      54751.365      15504.213      20           
   4764000  -2479.2634      20.139446     -2499.4029      1.360611       217.302        228.87073      288.85019      314.07232      300.6848       56047.017      15871.109      19           
   4765000  -2478.4455      20.46535      -2498.9109      1.360611       220.81847      279.35665      299.7482       304.48224      310.88178      56397.381      15970.324      20           
   4766000  -2479.6369      20.573978     -2500.2108      1.360611       221.99055      371.24047      293.85294      312.07199      289.75056      57345.479      16238.801      22           
   4767000  -2479.0194      20.802384     -2499.8218      1.360611       224.45502      399.91952      298.5804       310.69043      274.77167      55641.467      15756.267      28           
   4768000  -2479.8652      19.974613     -2499.8398      1.360611       215.52348      297.6975       305.30245      282.28188      269.78616      55774.552      15793.954      25           
   4769000  -2478.876       20.773834     -2499.6498      1.360611       224.14697      291.18925      306.36913      312.14838      282.83278      55773.26       15793.588      30           
   4770000  -2480.3551      19.833506     -2500.1886      1.360611       214.00095      219.69638      300.63658      292.94614      275.77554      55624.58       15751.486      27           
   4771000  -2480.6187      19.735958     -2500.3546      1.360611       212.94841      235.24065      303.84349      279.88977      288.2193       56964.786      16130.998      27           
   4772000  -2480.2523      20.318191     -2500.5705      1.360611       219.23063      402.30182      302.49807      283.00759      283.82338      55482.231      15711.176      28           
   4773000  -2478.6754      20.672378     -2499.3478      1.360611       223.05227      367.60482      296.44626      311.39593      281.02842      56261.166      15931.751      29           
   4774000  -2478.1546      19.984696     -2498.1393      1.360611       215.63227      280.2419       279.14348      320.75763      285.31914      55828.926      15809.351      29           
   4775000  -2478.9777      20.124677     -2499.1024      1.360611       217.14264      216.10359      296.39808      308.49732      291.25879      57155.19       16184.916      26           
   4776000  -2480.2505      20.3182       -2500.5687      1.360611       219.23074      268.57066      300.455        307.09314      272.88059      55259.794      15648.187      28           
   4777000  -2480.6901      19.465988     -2500.1561      1.360611       210.03547      292.61097      285.91931      288.14627      280.86276      56368.246      15962.073      34           
   4778000  -2479.7667      19.776892     -2499.5435      1.360611       213.39009      255.73336      302.35821      282.10881      285.63025      56073.689      15878.662      32           
   4779000  -2479.1825      20.877791     -2500.0603      1.360611       225.26865      256.96772      301.64474      328.08142      281.67222      56890.369      16109.925      26           
   4780000  -2478.7568      21.283923     -2500.0407      1.360611       229.65076      181.0213       342.96142      296.37786      257.78516      56573.492      16020.194      22           
   4781000  -2480.0309      19.442195     -2499.4731      1.360611       209.77875      243.80641      293.67274      284.99627      266.95054      55992.879      15855.779      24           
   4782000  -2479.6099      19.698316     -2499.3082      1.360611       212.54226      228.47948      316.43184      266.6852       264.11969      56378.152      15964.878      30           
   4783000  -2479.3201      20.399031     -2499.7191      1.360611       220.10289      281.43249      298.44371      313.88236      259.4901       56559.132      16016.127      25           
   4784000  -2479.5632      20.500896     -2500.0641      1.360611       221.202        340.07962      285.61061      329.76409      250.6337       55813.479      15804.977      30           
   4785000  -2479.8131      20.349992     -2500.1631      1.360611       219.57377      245.82788      306.36001      306.51675      251.32367      55447.735      15701.407      25           
   4786000  -2480.4629      19.528005     -2499.9909      1.360611       210.70463      285.18597      296.90177      275.91647      281.10235      56433.913      15980.668      32           
   4787000  -2479.1594      21.086026     -2500.2454      1.360611       227.51547      288.39955      317.14033      312.46816      265.83291      55641.195      15756.191      27           
   4788000  -2479.4174      20.21665      -2499.634       1.360611       218.13502      299.48679      285.05162      319.80542      279.20194      56310.168      15945.627      29           
   4789000  -2479.3031      20.246154     -2499.5492      1.360611       218.45336      254.331        310.42911      291.91882      271.86796      54806.99       15519.964      28           
   4790000  -2480.907       18.898771     -2499.8058      1.360611       203.91528      185.30381      269.97688      302.80183      278.90812      56857.325      16100.568      25           
   4791000  -2479.2625      19.905625     -2499.1682      1.360611       214.7791       237.10377      286.21156      317.52859      258.00931      56396.435      15970.056      23           
   4792000  -2478.2382      21.256604     -2499.4948      1.360611       229.35599      369.20438      311.38985      319.11178      251.26806      56151.075      15900.576      28           
   4793000  -2478.8861      21.067341     -2499.9534      1.360611       227.31387      322.61221      320.74201      299.37476      277.08043      55779.311      15795.302      29           
   4794000  -2479.3704      20.005818     -2499.3763      1.360611       215.86017      264.61399      301.83733      293.35875      268.57041      55111.763      15606.269      27           
   4795000  -2480.8187      19.837824     -2500.6565      1.360611       214.04754      359.15333      278.61413      307.52961      268.60015      57215.636      16202.033      27           
   4796000  -2481.6217      18.791845     -2500.4136      1.360611       202.76156      296.91355      272.36842      281.90252      266.99121      55727.89       15780.74       32           
   4797000  -2480.8447      19.96975      -2500.8144      1.360611       215.471        285.99986      285.85901      309.46173      285.14995      57143.864      16181.709      26           
   4798000  -2481.3676      19.344508     -2500.7121      1.360611       208.72473      230.86639      285.50972      288.24436      305.80187      54647.984      15474.938      27           
   4799000  -2480.2161      20.457005     -2500.6731      1.360611       220.72842      302.48859      313.05581      284.38825      300.78514      56612.953      16031.368      28           
   4800000  -2479.4056      20.636979     -2500.0426      1.360611       222.67032      331.67256      292.44942      316.42125      309.72895      56175.199      15907.407      28           
   4801000  -2477.3299      20.987243     -2498.3171      1.360611       226.44962      254.74455      294.36818      338.45611      312.08559      55657.667      15760.855      28           
   4802000  -2478.7297      19.87238      -2498.602       1.360611       214.4204       264.56251      283.26408      301.74776      343.1786       56856.891      16100.445      27           
   4803000  -2479.3756      20.975141     -2500.3507      1.360611       226.31904      338.81182      301.51487      312.87827      326.35502      56656.078      16043.58       27           
   4804000  -2479.8553      20.223494     -2500.0788      1.360611       218.20886      243.86088      288.04365      318.40316      306.0385       57437.319      16264.808      26           
   4805000  -2478.2205      21.723675     -2499.9442      1.360611       234.39562      261.23247      334.56574      306.45674      322.62046      55810.16       15804.037      27           
   4806000  -2478.958       21.201298     -2500.1593      1.360611       228.75924      267.91604      303.17898      330.16807      325.67384      56888.975      16109.531      29           
   4807000  -2478.8121      20.864765     -2499.6768      1.360611       225.12809      223.52928      299.7362       325.1458       340.21869      54737.06       15500.162      28           
   4808000  -2480.7254      19.96379      -2500.6892      1.360611       215.4067       268.70476      290.10402      296.32135      337.10146      57106.552      16171.143      28           
   4809000  -2478.8162      20.589349     -2499.4055      1.360611       222.1564       312.14826      288.83398      316.76107      339.90236      55561.926      15733.744      25           
   4810000  -2480.2286      20.049906     -2500.2785      1.360611       216.33587      280.2479       298.02117      285.39021      344.74091      56317.737      15947.77       30           
   4811000  -2478.0379      20.932371     -2498.9703      1.360611       225.85756      228.51704      301.35951      328.43079      319.6466       55800.926      15801.422      28           
   4812000  -2476.749       21.223683     -2497.9727      1.360611       229.00078      264.23189      307.47548      328.09483      310.51414      56879.6        16106.876      29           
   4813000  -2477.0629      21.560399     -2498.6233      1.360611       232.6339       240.04609      306.65368      343.84379      329.9413       55923.098      15836.018      30           
   4814000  -2477.9233      20.371651     -2498.2949      1.360611       219.80746      276.31615      302.41774      291.66096      366.94969      54493.429      15431.172      35           
   4815000  -2479.5543      21.06629      -2500.6206      1.360611       227.30252      261.38611      311.40973      309.02434      360.90929      56488.279      15996.064      32           
   4816000  -2479.2926      20.940745     -2500.2334      1.360611       225.94791      313.10356      310.98426      294.3609       372.96387      55004.064      15575.771      32           
   4817000  -2479.5517      20.677262     -2500.2289      1.360611       223.10496      253.17631      312.99817      293.89886      354.61915      57043.27       16153.223      34           
   4818000  -2478.9451      20.790397     -2499.7355      1.360611       224.32568      252.07552      298.86933      319.94867      337.73066      54617.087      15466.189      29           
   4819000  -2479.0299      20.017619     -2499.0475      1.360611       215.98751      266.00996      288.00884      304.64764      328.41791      56993.209      16139.047      32           
   4820000  -2478.9169      20.277486     -2499.1944      1.360611       218.79144      227.257        300.10493      303.54238      321.67689      55300.273      15659.65       29           
   4821000  -2480.9249      19.356019     -2500.2809      1.360611       208.84893      279.67133      283.46465      284.31984      309.749        56617.968      16032.788      28           
   4822000  -2479.5898      21.655622     -2501.2454      1.360611       233.66135      368.09796      318.8295       307.24342      345.51482      56088.186      15882.767      32           
   4823000  -2479.5454      20.676997     -2500.2224      1.360611       223.10211      258.43835      322.11669      274.46642      373.54234      55946.118      15842.537      29           
   4824000  -2479.6591      20.86734      -2500.5265      1.360611       225.15588      235.65448      304.60142      311.908        365.7161       55962.69       15847.23       29           
   4825000  -2478.8944      20.653626     -2499.5481      1.360611       222.84993      298.15698      310.75389      289.377        340.95331      54805.358      15519.503      28           
   4826000  -2479.222       21.302096     -2500.5241      1.360611       229.84684      301.43807      314.01592      308.71446      355.92186      57245.189      16210.401      33           
   4827000  -2481.5588      19.40226      -2500.961       1.360611       209.34786      331.88801      295.71162      256.66905      326.8026       55469.933      15707.694      35           
   4828000  -2480.015       20.532319     -2500.5473      1.360611       221.54105      290.61901      295.29546      310.92018      321.09163      56333.681      15952.285      23           
   4829000  -2477.9894      21.004849     -2498.9943      1.360611       226.63958      281.88687      313.2575       305.80833      312.64174      55420.703      15693.753      18           
   4830000  -2480.0417      20.99618      -2501.0378      1.360611       226.54605      303.65872      305.84556      315.622        307.50841      56240.851      15925.998      20           
   4831000  -2480.6204      18.991755     -2499.6122      1.360611       204.91856      305.91098      280.38839      269.47334      311.84702      55562.13       15733.801      20           
   4832000  -2479.0308      19.800348     -2498.8311      1.360611       213.64318      430.0072       290.92359      274.92315      308.19759      55569.955      15736.017      21           
   4833000  -2480.1615      20.30493      -2500.4664      1.360611       219.08756      220.97716      301.50782      303.57976      303.78854      55821.667      15807.296      22           
   4834000  -2480.8871      20.060449     -2500.9476      1.360611       216.44964      308.04062      301.31769      282.23349      312.1742       55497.496      15715.499      21           
   4835000  -2480.2199      19.775952     -2499.9958      1.360611       213.37995      371.92363      290.20174      279.79241      300.41155      55907.876      15831.708      28           
   4836000  -2478.8148      20.470799     -2499.2856      1.360611       220.87726      285.22098      315.93846      280.66143      312.70356      55969.827      15849.251      25           
   4837000  -2480.8141      18.878252     -2499.6924      1.360611       203.69388      268.3581       298.31025      245.60006      297.62976      56849.442      16098.336      22           
   4838000  -2478.658       20.772196     -2499.4302      1.360611       224.12929      300.09499      327.93754      285.46603      251.14064      55532.432      15725.391      24           
   4839000  -2478.3904      20.37258      -2498.7629      1.360611       219.81748      261.65487      301.99246      309.10273      264.18535      56215.619      15918.853      18           
   4840000  -2479.6169      21.441251     -2501.0582      1.360611       231.34831      275.28102      312.64512      333.20499      277.21295      55903.683      15830.52       20           
   4841000  -2481.2039      20.209105     -2501.413       1.360611       218.05361      332.93937      293.91288      301.42634      289.99278      57328.097      16233.879      21           
   4842000  -2480.382       20.023177     -2500.4052      1.360611       216.04748      246.37873      293.5747       303.67081      289.31069      55575.155      15737.49       21           
   4843000  -2478.981       20.356517     -2499.3375      1.360611       219.64417      208.74176      315.2282       293.64307      273.38153      55618.512      15749.767      22           
   4844000  -2480.4709      19.968893     -2500.4398      1.360611       215.46176      299.6172       294.26879      298.0598       273.51727      55404.784      15689.245      22           
   4845000  -2480.2833      20.347914     -2500.6312      1.360611       219.55135      256.41729      285.91577      331.53613      267.75826      55915.043      15833.738      18           
   4846000  -2480.2088      19.505159     -2499.7139      1.360611       210.45812      301.50133      292.38578      281.5212       273.33426      55526.89       15723.822      23           
   4847000  -2479.1524      21.313625     -2500.466       1.360611       229.97124      313.75971      314.59863      322.54285      270.84974      55610.013      15747.361      23           
   4848000  -2478.7298      20.448462     -2499.1783      1.360611       220.63624      252.2783       310.0795       299.79406      271.97255      56366.062      15961.455      22           
   4849000  -2478.2623      20.678233     -2498.9405      1.360611       223.11544      312.71431      308.17488      298.12455      307.40611      54763.849      15507.748      23           
   4850000  -2478.0546      20.928454     -2498.9831      1.360611       225.8153       238.60769      329.4565       284.42345      308.41378      56319.82       15948.36       20           
   4851000  -2478.7196      20.593309     -2499.3129      1.360611       222.19912      298.85331      316.4551       284.81561      303.3012       55023.585      15581.299      23           
   4852000  -2478.7658      21.709162     -2500.475       1.360611       234.23903      323.32376      325.64914      315.68077      297.78881      56947.614      16126.136      25           
   4853000  -2477.4498      21.875749     -2499.3256      1.360611       236.03648      304.36882      321.39341      326.30823      320.63452      56148.311      15899.793      24           
   4854000  -2478.5297      21.48457      -2500.0143      1.360611       231.81571      240.33479      326.3085       311.98452      329.0843       55472.26       15708.352      30           
   4855000  -2478.7141      20.839007     -2499.5531      1.360611       224.85018      311.16784      299.14948      314.82813      326.27393      55967.46       15848.581      30           
   4856000  -2480.1946      20.091325     -2500.286       1.360611       216.78279      259.90498      300.71554      292.75381      306.87492      55491.992      15713.94       29           
   4857000  -2478.5485      20.673646     -2499.2222      1.360611       223.06595      273.77159      319.41316      288.07551      302.98336      57117.736      16174.31       31           
   4858000  -2479.5658      21.341408     -2500.9072      1.360611       230.27101      240.14289      313.04343      326.34894      313.1815       54940.057      15557.646      25           
   4859000  -2480.0841      20.153156     -2500.2373      1.360611       217.44993      249.10467      302.4344       291.75995      319.01264      57595.322      16309.55       28           
   4860000  -2480.4968      20.455368     -2500.9521      1.360611       220.71076      259.22777      309.30677      297.04621      292.26323      54499.071      15432.77       26           
   4861000  -2479.2842      20.736103     -2500.0203      1.360611       223.73986      347.14784      283.60044      334.15115      299.3261       57268.405      16216.976      24           
   4862000  -2479.3638      19.24609      -2498.6099      1.360611       207.6628       262.58968      282.58817      282.86565      309.34484      56297.104      15941.927      25           
   4863000  -2479.0535      20.261215     -2499.3147      1.360611       218.61587      271.18442      292.36333      304.87704      331.60071      56191.146      15911.923      25           
   4864000  -2480.2505      20.427349     -2500.6779      1.360611       220.40844      288.01299      310.16733      284.68049      328.01585      56032.099      15866.885      29           
   4865000  -2480.1883      19.5306       -2499.7189      1.360611       210.73263      244.23948      287.25465      287.2976       329.60578      55448.46       15701.613      28           
   4866000  -2481.327       19.184622     -2500.5116      1.360611       206.99957      285.46178      274.26779      291.89046      297.1303       56091.673      15883.755      23           
   4867000  -2478.5299      22.072629     -2500.6025      1.360611       238.16079      316.91038      336.93891      316.60575      288.60741      55752.369      15787.672      27           
   4868000  -2480.234       20.32015      -2500.5541      1.360611       219.25178      331.40831      304.44018      291.51967      277.19385      55682.457      15767.875      29           
   4869000  -2479.7813      19.908737     -2499.69        1.360611       214.81268      285.04049      285.82776      308.8293       276.26458      55006.742      15576.529      25           
   4870000  -2479.8155      20.57417      -2500.3897      1.360611       221.99261      366.06166      296.6849       305.85759      300.85267      56745.639      16068.942      23           
   4871000  -2478.7201      20.737544     -2499.4577      1.360611       223.7554       304.688        311.46181      302.21792      280.57133      57377.014      16247.731      22           
   4872000  -2477.6808      21.450299     -2499.1311      1.360611       231.44593      396.90405      307.35041      326.0367       286.68681      56581.876      16022.568      22           
   4873000  -2479.4594      20.624044     -2500.0835      1.360611       222.53075      376.09766      305.794        297.75535      284.27917      55710.342      15775.771      21           
   4874000  -2477.6115      21.510321     -2499.1218      1.360611       232.09356      294.4562       315.85258      330.67222      272.12184      55520.412      15721.988      24           
   4875000  -2479.1247      19.321732     -2498.4465      1.360611       208.47897      249.02262      283.00821      296.48827      260.6167       56700.929      16056.281      28           
   4876000  -2479.5547      20.143963     -2499.6986      1.360611       217.35074      211.55409      296.40327      312.44615      281.36169      55113.409      15606.735      28           
   4877000  -2479.0972      21.192994     -2500.2902      1.360611       228.66965      216.00775      320.11292      323.80348      259.92717      56711.974      16059.408      28           
   4878000  -2478.8228      20.829597     -2499.6524      1.360611       224.74864      313.80426      303.00629      319.41048      262.6835       55736.975      15783.313      30           
   4879000  -2478.7589      21.245698     -2500.0046      1.360611       229.23832      339.06267      315.46938      315.34938      259.4568       56467.897      15990.292      27           
   4880000  -2479.0406      21.038659     -2500.0792      1.360611       227.00439      328.98545      307.52869      317.28004      269.33163      55669.671      15764.254      30           
   4881000  -2479.2358      20.904227     -2500.1401      1.360611       225.55388      330.66677      317.45172      293.61179      295.18218      57362.436      16243.603      27           
   4882000  -2479.1905      21.299066     -2500.4895      1.360611       229.81415      327.93894      306.81946      326.53511      291.44814      56181.254      15909.122      26           
   4883000  -2479.4036      20.939964     -2500.3436      1.360611       225.93949      270.98741      309.42846      315.92577      290.18866      56730.81       16064.742      28           
   4884000  -2479.4381      20.230074     -2499.6682      1.360611       218.27987      296.42878      307.8633       288.29954      274.4854       55228.87       15639.43       28           
   4885000  -2479.8074      19.623964     -2499.4314      1.360611       211.74002      337.05532      293.0267       279.35141      262.3345       57049.408      16154.961      33           
   4886000  -2481.9909      18.36693      -2500.3578      1.360611       198.17678      238.92839      282.12811      260.55517      258.92809      55808.227      15803.49       31           
   4887000  -2481.4753      19.626927     -2501.1022      1.360611       211.77199      324.88309      292.03328      286.46342      250.14028      54939.744      15557.557      30           
   4888000  -2479.9162      20.588514     -2500.5047      1.360611       222.14738      258.12145      320.59663      296.47691      236.04671      57079.223      16163.404      27           
   4889000  -2480.7294      18.723681     -2499.4531      1.360611       202.02608      214.15096      292.22976      266.82365      240.44364      56176.122      15907.669      29           
   4890000  -2480.9114      19.501605     -2500.413       1.360611       210.41978      275.15553      304.81138      271.77792      236.6069       57329.069      16234.154      29           
   4891000  -2478.7217      20.578394     -2499.3001      1.360611       222.03819      332.62589      312.39495      297.2762       227.38368      55712.511      15776.386      30           
   4892000  -2480.0967      19.924381     -2500.0211      1.360611       214.98148      313.06464      291.79927      302.38719      240.5851       56541.35       16011.092      29           
   4893000  -2479.0267      20.195795     -2499.2225      1.360611       217.91         271.26226      300.72253      308.55368      235.43026      56104.051      15887.26       29           
   4894000  -2479.5017      20.760938     -2500.2627      1.360611       224.00782      338.3186       315.11806      301.85365      239.76863      55676.894      15766.3        24           
   4895000  -2479.4423      20.652407     -2500.0947      1.360611       222.83678      263.39718      301.52904      330.07996      220.83692      56056.194      15873.708      27           
   4896000  -2478.6193      20.294645     -2498.9139      1.360611       218.97658      308.75952      290.25141      321.63898      241.93613      56079.131      15880.203      26           
   4897000  -2479.3231      20.739316     -2500.0624      1.360611       223.77452      344.68582      329.0656       275.14105      263.18878      56821.437      16090.405      22           
   4898000  -2478.8593      20.464633     -2499.3239      1.360611       220.81073      285.56944      314.99737      290.34503      267.45802      55352.686      15674.492      25           
   4899000  -2478.006       21.288637     -2499.2946      1.360611       229.70162      320.15017      325.59594      299.75185      291.26033      55293.399      15657.704      28           
   4900000  -2478.1909      21.186511     -2499.3774      1.360611       228.5997       323.26207      307.22575      322.1619       289.68341      56179.094      15908.51       26           
   4901000  -2479.1114      20.946399     -2500.0578      1.360611       226.00891      334.14881      325.66769      281.79694      298.69951      55316.065      15664.122      29           
   4902000  -2478.2364      21.21733      -2499.4537      1.360611       228.93223      342.981        319.08455      299.90349      311.95916      56735.688      16066.124      22           
   4903000  -2479.242       19.977423     -2499.2195      1.360611       215.5538       292.94554      280.37697      310.24804      318.51711      56597.348      16026.949      24           
   4904000  -2478.935       21.585632     -2500.5206      1.360611       232.90616      371.82592      319.82298      311.70757      307.19896      56808.079      16086.623      22           
   4905000  -2479.3363      20.906939     -2500.2433      1.360611       225.58315      364.17717      318.19391      282.22732      323.36582      55253.258      15646.337      29           
   4906000  -2478.2777      21.178624     -2499.4563      1.360611       228.5146       339.49362      311.17205      306.65083      326.57515      56634.445      16037.454      30           
   4907000  -2477.5323      21.267695     -2498.8         1.360611       229.47566      341.5005       307.04976      317.72599      322.90041      56204.529      15915.713      22           
   4908000  -2478.7333      20.682861     -2499.4162      1.360611       223.16538      266.83377      294.70936      316.18217      343.74985      56083.615      15881.473      23           
   4909000  -2481.1857      19.632617     -2500.8183      1.360611       211.83338      287.04179      312.54964      249.31361      317.41222      55723.565      15779.516      21           
   4910000  -2480.3104      19.956443     -2500.2668      1.360611       215.32743      348.6922       294.22713      285.09934      304.60142      56650.632      16042.038      24           
   4911000  -2479.8283      20.498969     -2500.3273      1.360611       221.18121      182.57507      318.13774      293.50414      289.56617      56675.501      16049.08       20           
   4912000  -2479.4774      19.984011     -2499.4614      1.360611       215.62487      298.47741      297.16412      291.47215      287.99083      54468.619      15424.146      23           
   4913000  -2480.6403      19.290366     -2499.9306      1.360611       208.14054      314.22625      285.3852       282.91054      265.39221      57778.639      16361.461      23           
   4914000  -2480.6427      20.117904     -2500.7606      1.360611       217.06956      318.67387      304.44013      287.39509      269.83225      55146.638      15616.145      24           
   4915000  -2478.649       20.300651     -2498.9497      1.360611       219.04138      328.0491       317.32344      273.097        277.96272      55663.131      15762.402      26           
   4916000  -2478.4738      22.028634     -2500.5024      1.360611       237.6861       377.88859      326.37803      319.62287      302.22087      55686.238      15768.946      25           
   4917000  -2477.994       21.068203     -2499.0622      1.360611       227.32316      307.45991      309.42452      315.15108      295.17037      56635.904      16037.867      26           
   4918000  -2479.1469      20.768246     -2499.9151      1.360611       224.08667      264.75773      319.77349      291.79414      298.83963      56819.29       16089.797      22           
   4919000  -2478.447       20.807726     -2499.2547      1.360611       224.51265      250.27652      320.5715       295.73496      289.33913      54892.955      15544.308      21           
   4920000  -2476.8418      21.358783     -2498.2006      1.360611       230.45849      218.22504      313.8691       325.3362       314.43594      57813.381      16371.299      19           
   4921000  -2479.244       20.124228     -2499.3683      1.360611       217.1378       312.35693      299.05399      289.51748      304.53123      54285.09       15372.176      20           
   4922000  -2479.1474      20.828247     -2499.9756      1.360611       224.73408      235.31704      300.84319      322.13146      312.74766      57852.404      16382.349      21           
   4923000  -2479.8081      20.404738     -2500.2128      1.360611       220.16447      304.7158       306.70537      286.45444      325.42234      55467.354      15706.963      25           
   4924000  -2479.8504      20.243797     -2500.0942      1.360611       218.42793      339.36281      287.76451      307.08742      304.81434      56879.668      16106.895      26           
   4925000  -2479.2992      21.575048     -2500.8743      1.360611       232.79196      255.58225      344.10244      288.28705      308.93458      56193.454      15912.576      23           
   4926000  -2479.5381      19.97283      -2499.5109      1.360611       215.50424      231.8131       308.14792      277.32734      313.74046      55996.254      15856.734      23           
   4927000  -2480.5307      19.366285     -2499.8969      1.360611       208.95969      304.3928       300.92198      257.52645      298.96227      56819.278      16089.794      22           
   4928000  -2477.9422      21.437782     -2499.38        1.360611       231.31087      346.27156      320.6798       305.51725      312.21597      55379.6        15682.113      26           
   4929000  -2478.893       19.939598     -2498.8326      1.360611       215.14567      210.13476      288.6054       307.13349      319.46004      56772.769      16076.624      25           
   4930000  -2477.8767      21.764038     -2499.6408      1.360611       234.83114      300.8979       306.27489      344.79758      320.06125      54691.218      15487.181      28           
   4931000  -2478.994       21.455918     -2500.45        1.360611       231.50657      383.50588      312.49854      312.62029      312.14669      57326.087      16233.31       28           
   4932000  -2480.3793      20.734328     -2501.1136      1.360611       223.7207       423.99841      295.41439      298.74444      322.24068      56154.345      15901.502      31           
   4933000  -2478.7941      20.762138     -2499.5562      1.360611       224.02077      438.39306      306.02315      280.19335      349.09427      56505.155      16000.842      26           
   4934000  -2479.5935      20.897806     -2500.4913      1.360611       225.48461      439.20026      287.37908      311.82742      328.48461      55990.393      15855.075      34           
   4935000  -2479.43        20.517516     -2499.9475      1.360611       221.38132      419.16445      273.19403      321.16078      356.28711      55808.324      15803.517      23           
   4936000  -2479.1719      20.22111      -2499.393       1.360611       218.18315      348.93274      276.81881      310.61868      357.5697       55257.895      15647.65       21           
   4937000  -2478.1235      20.597257     -2498.7208      1.360611       222.24172      359.52908      296.65066      291.94614      378.10859      55689.993      15770.009      18           
   4938000  -2479.8357      20.294193     -2500.1299      1.360611       218.9717       344.17679      290.56266      290.1036       377.84475      56632.078      16036.784      19           
   4939000  -2480.6122      19.601587     -2500.2137      1.360611       211.49858      373.81018      281.93085      275.28266      360.30425      55594.704      15743.025      20           
   4940000  -2480.4211      19.479135     -2499.9003      1.360611       210.17733      273.41804      264.81969      306.75633      361.94288      58055.65       16439.904      23           
   4941000  -2478.334       21.311774     -2499.6458      1.360611       229.95127      360.8532       301.15662      315.55431      369.19172      54293.495      15374.556      28           
   4942000  -2478.3422      21.727473     -2500.0697      1.360611       234.43661      383.8121       308.3621       316.18211      381.08945      56624.419      16034.615      29           
   4943000  -2478.312       21.51254      -2499.8245      1.360611       232.1175       297.45564      316.77702      298.90256      420.57767      55102.113      15603.536      25           
   4944000  -2478.4435      20.266309     -2498.7098      1.360611       218.67084      306.96153      290.89943      285.78252      420.27002      57367.315      16244.984      24           
   4945000  -2478.8137      20.429076     -2499.2428      1.360611       220.42707      254.29031      300.71575      290.02805      410.37994      55125.541      15610.17       32           
   4946000  -2479.7518      20.05194      -2499.8037      1.360611       216.35783      364.51446      283.8189       287.76386      370.91067      57000.476      16141.105      31           
   4947000  -2478.6666      21.905957     -2500.5726      1.360611       236.36243      380.80979      323.19939      305.89667      365.67617      56682.065      16050.939      31           
   4948000  -2480.2194      19.165741     -2499.3851      1.360611       206.79585      380.11983      283.16885      262.20595      300.73421      55321.219      15665.581      32           
   4949000  -2478.1722      20.660551     -2498.8328      1.360611       222.92466      322.58255      315.86818      283.32931      313.18062      56094.236      15884.48       31           
   4950000  -2478.8443      21.387243     -2500.2316      1.360611       230.76556      266.12375      325.49977      302.41851      338.86988      54757.094      15505.835      27           
   4951000  -2478.5061      20.72581      -2499.2319      1.360611       223.62879      290.07865      298.12655      308.09318      353.93397      57135.028      16179.207      22           
   4952000  -2479.5161      20.762789     -2500.2788      1.360611       224.02779      247.41691      295.21403      314.11068      373.26349      54764.806      15508.019      21           
   4953000  -2480.4459      19.649744     -2500.0957      1.360611       212.01818      256.01323      283.93023      284.3297       369.85286      57700.745      16339.403      21           
   4954000  -2480.7752      20.757375     -2501.5326      1.360611       223.96938      342.79113      303.63977      290.94747      373.09698      53472.751      15142.142      21           
   4955000  -2479.1935      20.543631     -2499.7372      1.360611       221.66311      302.72138      298.89199      291.89288      382.01781      57355.328      16241.59       24           
   4956000  -2478.631       21.025908     -2499.6569      1.360611       226.86681      299.03929      305.97465      309.97105      343.73794      56482.43       15994.407      24           
   4957000  -2479.4534      20.418023     -2499.8714      1.360611       220.30781      255.52694      308.63147      287.67952      334.50875      56404.207      15972.256      22           
   4958000  -2479.3484      21.007969     -2500.3563      1.360611       226.67325      307.39279      306.3597       309.70948      334.92153      56120.661      15891.963      28           
   4959000  -2479.4265      19.976162     -2499.4027      1.360611       215.54019      253.74016      291.0344       296.53043      335.78618      55443.312      15700.155      25           
   4960000  -2476.9667      21.428227     -2498.3949      1.360611       231.20778      339.83287      312.19914      313.12883      339.38299      58028.208      16432.133      26           
   4961000  -2478.3503      21.521371     -2499.8717      1.360611       232.21279      313.64501      313.25678      320.33423      331.60609      54749.048      15503.557      24           
   4962000  -2479.3788      20.372068     -2499.7509      1.360611       219.81196      399.08503      291.82311      295.84929      327.42871      56999.786      16140.909      22           
   4963000  -2480.9063      19.700021     -2500.6064      1.360611       212.56066      344.5083       274.54449      296.49325      341.15636      54559.519      15449.887      25           
   4964000  -2480.6412      19.497371     -2500.1386      1.360611       210.3741       225.42788      287.42504      283.0139       340.53566      57568.829      16302.048      22           
   4965000  -2478.6919      20.277777     -2498.9697      1.360611       218.79458      298.9793       274.31322      326.51712      337.26075      55035.826      15584.765      25           
   4966000  -2479.7986      20.085319     -2499.8839      1.360611       216.71797      256.20767      297.5777       293.53604      318.82044      55211          15634.37       23           
   4967000  -2478.9395      20.351894     -2499.2913      1.360611       219.59429      327.98397      295.22888      304.55067      294.72451      55905.642      15831.075      23           
   4968000  -2478.3378      20.92429      -2499.2621      1.360611       225.77036      363.77551      296.07974      318.52606      312.96199      56381.984      15965.963      25           
   4969000  -2477.5672      20.441482     -2498.0086      1.360611       220.56093      297.26411      314.43361      281.85123      303.81347      56864.243      16102.527      29           
   4970000  -2479.3063      20.744562     -2500.0509      1.360611       223.83112      268.97045      307.23538      305.60343      332.49839      55357.32       15675.804      34           
   4971000  -2479.7261      20.123225     -2499.8494      1.360611       217.12698      323.70838      296.65431      289.45867      309.82426      56499.569      15999.261      36           
   4972000  -2479.4036      20.973878     -2500.3774      1.360611       226.30542      299.40822      316.90947      297.07865      324.2934       55510.768      15719.257      35           
   4973000  -2481.2036      19.540079     -2500.7437      1.360611       210.83491      248.73688      299.74333      269.83336      324.8567       56426.877      15978.676      28           
   4974000  -2480.4008      20.182154     -2500.5829      1.360611       217.76281      261.39569      292.38991      304.24586      327.92421      56192.932      15912.429      27           
   4975000  -2477.5679      20.1457       -2497.7136      1.360611       217.36948      262.68048      297.71333      300.06003      302.54352      55579.325      15738.67       31           
   4976000  -2478.9099      21.081377     -2499.9913      1.360611       227.46531      403.251        307.40712      301.28688      318.39374      56515.469      16003.763      27           
   4977000  -2479.474       20.803617     -2500.2776      1.360611       224.46832      307.24179      289.73457      330.76356      309.95298      56575.222      16020.684      28           
   4978000  -2479.7441      20.808382     -2500.5524      1.360611       224.51973      256.51583      312.74501      300.42162      342.03539      56505.253      16000.87       32           
   4979000  -2480.6633      18.767179     -2499.4305      1.360611       202.49542      272.96595      269.13708      273.0208       370.71182      54031.246      15300.293      31           
   4980000  -2480.2468      20.326276     -2500.5731      1.360611       219.31787      317.59374      305.74856      276.30235      365.91411      57062.75       16158.739      30           
   4981000  -2479.5693      20.843527     -2500.4128      1.360611       224.89894      301.54148      331.28442      269.24116      327.43923      56034.863      15867.667      31           
   4982000  -2479.7836      20.373981     -2500.1576      1.360611       219.83261      246.41572      319.32003      273.8448       337.05837      56391.788      15968.74       29           
   4983000  -2478.6101      20.849344     -2499.4595      1.360611       224.96171      269.39849      329.75228      280.88004      301.23097      55216.195      15635.841      30           
   4984000  -2477.8755      21.305091     -2499.1806      1.360611       229.87916      296.82326      306.86464      328.07053      308.66589      55749.452      15786.846      33           
   4985000  -2479.963       19.862218     -2499.8252      1.360611       214.31074      281.4898       293.59031      290.90279      305.15146      57042.328      16152.956      29           
   4986000  -2480.6309      19.205735     -2499.8367      1.360611       207.22738      322.6707       263.10361      300.24314      315.24124      55683.223      15768.092      26           
   4987000  -2481.2441      20.026055     -2501.2702      1.360611       216.07853      342.22039      269.62665      319.95821      325.86392      56600.076      16027.722      27           
   4988000  -2478.3485      21.220344     -2499.5688      1.360611       228.96475      389.04281      298.66046      317.16846      340.1221       55676.449      15766.174      28           
   4989000  -2478.8308      21.081979     -2499.9128      1.360611       227.47181      345.8544       299.10313      312.96412      361.91896      56445.442      15983.933      24           
   4990000  -2477.3419      22.330996     -2499.6729      1.360611       240.94854      288.74538      324.17543      327.74486      381.47386      56363.522      15960.735      17           
   4991000  -2478.3379      21.03292      -2499.3708      1.360611       226.94247      324.18202      303.55758      305.90398      360.40835      55543.243      15728.453      18           
   4992000  -2479.7816      20.297106     -2500.0787      1.360611       219.00313      287.13352      290.83593      294.65288      376.62984      55976.028      15851.007      20           
   4993000  -2477.5477      22.236729     -2499.7844      1.360611       239.93141      350.96522      321.31044      325.21004      370.9671       56065.005      15876.203      17           
   4994000  -2479.3867      20.809688     -2500.1964      1.360611       224.53383      309.51377      297.83465      310.93497      344.64794      57018.9        16146.322      18           
   4995000  -2480.131       20.479707     -2500.6107      1.360611       220.97338      267.86011      314.9363       276.34157      341.73765      55728.059      15780.788      18           
   4996000  -2479.0076      20.533435     -2499.5411      1.360611       221.55309      317.80827      297.22496      299.04467      347.09856      56636.889      16038.146      24           
   4997000  -2477.5101      21.773226     -2499.2833      1.360611       234.93027      267.7026       326.60484      309.24139      366.03152      55500.083      15716.231      23           
   4998000  -2477.3744      22.063893     -2499.4383      1.360611       238.06654      415.11756      325.80842      307.92753      352.50309      56326.302      15950.196      23           
   4999000  -2480.1286      20.186223     -2500.3148      1.360611       217.80672      231.89639      310.89093      275.0746       343.6235       55434.782      15697.739      22           
   5000000  -2479.275       19.624392     -2498.8994      1.360611       211.74464      368.51417      262.58146      309.33342      335.38184      56650.256      16041.931      21           
   5000108  -2478.811       21.093692     -2499.9047      1.360611       227.59819      321.93328      300.45266      316.87269      346.4926       55207.436      15633.361      21           
Loop time of 2815.95 on 24 procs for 5000000 steps with 718 atoms

Performance: 153.412 ns/day, 0.156 hours/ns, 1775.597 timesteps/s, 1.275 Matom-step/s
91.7% CPU use with 24 MPI tasks x 1 OpenMP threads

MPI task timing breakdown:
Section |  min time  |  avg time  |  max time  |%varavg| %total
---------------------------------------------------------------
Pair    | 770.59     | 1075.1     | 1506.8     | 760.0 | 38.18
Bond    | 0.57141    | 0.95373    | 2.167      |  38.1 |  0.03
Neigh   | 38.271     | 39.638     | 41.259     |  14.9 |  1.41
Comm    | 1119.4     | 1524.5     | 1783.5     | 574.7 | 54.14
Output  | 3.3318     | 3.6386     | 3.9014     |   8.9 |  0.13
Modify  | 55.191     | 87.338     | 180.11     | 358.9 |  3.10
Other   |            | 84.87      |            |       |  3.01

Nlocal:        29.9167 ave          55 max           0 min
Histogram: 6 1 1 0 2 0 0 3 8 3
Nghost:        2652.12 ave        2730 max        2404 min
Histogram: 2 0 0 0 0 0 2 7 8 5
Neighs:              0 ave           0 max           0 min
Histogram: 24 0 0 0 0 0 0 0 0 0

Total # of neighbors = 0
Ave neighs/atom = 0
Ave special neighs/atom = 0.072423398
Neighbor list builds = 82432
Dangerous builds = 0

print                   "simulation done."
simulation done.

#--------------------------------------------------------------------------------------------------------------------

#max temperature should approx. 1800 K
Total wall time: 0:46:56
