
units                   metal #Changed from real to metal
dimension               3
boundary                p p f #changed from p p p to p p f
atom_style              full
#--------------------------------------------------------------------------------

# Variables
variable                Nsteps equal 100000
variable                dt equal 5.0
variable                seed equal 20000 #12345 # random number seed
#--------------------------------------------------------------------------------

# creating simulation box
read_data               data.Ti extra/bond/types 1 extra/bond/per/atom 2
Reading data file ...
  orthogonal box = (0 0 0) to (100 100 800)
  2 by 1 by 12 MPI processor grid
Finding 1-2 1-3 1-4 neighbors ...
  special bond factors lj:    0        0        0       
  special bond factors coul:  0        0        0       
     0 = max # of 1-2 neighbors
     0 = max # of 1-3 neighbors
     0 = max # of 1-4 neighbors
     1 = max # of special neighbors
  special bonds CPU = 0.001 seconds
  read_data CPU = 0.005 seconds

#change_box all z final 0 ${Lz} units box #for only change in Lz
change_box              all x final 0 ${Lx} y final 0 ${Ly} z final 0 ${Lz} units box #for change in Lz, Lx, and Ly
change_box              all x final 0 61.95 y final 0 ${Ly} z final 0 ${Lz} units box 
change_box              all x final 0 61.95 y final 0 61.95 z final 0 ${Lz} units box 
change_box              all x final 0 61.95 y final 0 61.95 z final 0 124.59696163446749 units box 
Changing box ...
  orthogonal box = (0 0 0) to (61.95 100 800)
  orthogonal box = (0 0 0) to (61.95 61.95 800)
  orthogonal box = (0 0 0) to (61.95 61.95 124.59696)

timestep                0.001

neighbor                1.5 bin
#-----------------------------------------------------------------------------------

#defining Ti region
group                   titanium type 1
0 atoms in group titanium

region                  Ti_zone block INF INF INF INF INF 16 units box
#changed from 8
region                  bottom block INF INF INF INF INF 4 units box #Ti bottom layer region

region                  middle block INF INF INF INF 4 8 units box #Ti middle layer

region                  upper block INF INF INF INF 8 16 units box #Ti upper layer region

#---------------------------------------------------------------------------------------------
#obseration regions
region                  obs_Ti block INF INF INF INF 8 16 units box #observation region - to observe temperature of moving Ti layer
#changed from 3 8

region                  obs block INF INF INF INF 16 19 units box #observation region - for physisorption effect
#changed from 8 11

region                  obs_O2 block INF INF INF INF 19 INF units box #observation region - for gas temperature
#changed from 11
#-------------------------------------------------------------------------------

#lennard-jones
pair_style              hybrid lj/cut 15.0 eam/fs #changed from 15 to 10

pair_coeff              * * eam/fs Ti1.eam.fs Ti NULL #Ti-Ti
pair_coeff              2 2 lj/cut 0.0044640704 3.00578 #O-O #taken from: file://ifs.eng.cam.ac.uk/users/lkm41/Downloads/Short-Time_Oxidation_Behavior_of_Low-Carbon_Low-Si.pdf
pair_coeff              1 2 lj/cut 0.0105961 2.60289 #Ti-O #mixing lennard jones potential

# O2 Bonds
bond_style              harmonic
bond_coeff              1 847.0 1.21

special_bonds           lj 0.0 0.0 1.0
Finding 1-2 1-3 1-4 neighbors ...
  special bond factors lj:    0        0        1       
  special bond factors coul:  0        0        0       
     0 = max # of 1-2 neighbors
     0 = max # of 1-3 neighbors
     0 = max # of 1-4 neighbors
     1 = max # of special neighbors
  special bonds CPU = 0.001 seconds

#creating atoms for Ti_zone
lattice                 hcp 2.95
Lattice spacing in x,y,z = 2.95 5.1095499 4.8173298
create_atoms            1 region Ti_zone
Created 3612 atoms
  using lattice units in orthogonal box = (0 0 0) to (61.95 61.95 124.59696)
  create_atoms CPU = 0.006 seconds

#---------------------------------------------------------------------------------------
#Ti_zone groups
group                   bottom region bottom
1029 atoms in group bottom
group                   middle region middle
1029 atoms in group middle
group                   upper region upper
1554 atoms in group upper
#-------------------------------------------------------------------------------------

#creating O2 molecules
molecule                O2 O2.txt #made from given file
Read molecule template O2:
# O2 molecule
  1 molecules
  0 fragments
  0 bodies
  2 atoms with max type 1
  1 bonds with max type 1
  0 angles with max type 0
  0 dihedrals with max type 0
  0 impropers with max type 0

region                  gas block INF INF INF INF 19.0 ${Lz_minus_one} units box #gas region above  Ti slab
region                  gas block INF INF INF INF 19.0 123.59696163446749 units box 


create_atoms            1 random ${N} ${seed} gas mol O2 ${seed} units box
create_atoms            1 random 144 ${seed} gas mol O2 ${seed} units box
create_atoms            1 random 144 20000 gas mol O2 ${seed} units box
create_atoms            1 random 144 20000 gas mol O2 20000 units box
Created 288 atoms
  using box units in orthogonal box = (0 0 0) to (61.95 61.95 124.59696)
  create_atoms CPU = 0.000 seconds

group                   O2_zone region gas
288 atoms in group O2_zone

group                   mobile subtract all bottom middle
1842 atoms in group mobile

fix                     freeze bottom setforce 0.0 0.0 0.0

fix                     balance all balance 5000 1.1 shift xyz 5 1.05

#obervation group for physisorption
group                   obs dynamic all region obs every 1000
dynamic group obs defined
#obervation group for titanium layer
group                   obs_Ti dynamic all region obs_Ti every 1000
dynamic group obs_Ti defined

#----------------------------------------------------------------------------------------------------------------------
#observation for pressure

variable                zhi equal ${Lz}
variable                zhi equal 124.59696163446749
variable                zlo equal ${Lz}-200
variable                zlo equal 124.59696163446749-200

region                  gas_obs_zone block INF INF INF INF ${zlo} ${zhi} units box
region                  gas_obs_zone block INF INF INF INF -75.4030383655325 ${zhi} units box
region                  gas_obs_zone block INF INF INF INF -75.4030383655325 124.596961634467 units box

group                   O2_in_obs_zone dynamic all region gas_obs_zone every 100
dynamic group O2_in_obs_zone defined

variable                O2_obs_zone_volume equal lx*ly*(${zhi}-${zlo})
variable                O2_obs_zone_volume equal lx*ly*(124.596961634467-${zlo})
variable                O2_obs_zone_volume equal lx*ly*(124.596961634467--75.4030383655325)

compute                 O2_zone_temp O2_in_obs_zone temp

compute                 O2stress O2_in_obs_zone stress/atom O2_zone_temp
compute                 sum_stress O2_in_obs_zone reduce sum c_O2stress[1] c_O2stress[2] c_O2stress[3]
variable                O2pressure equal (-1)*(c_sum_stress[1]+c_sum_stress[2]+c_sum_stress[3])/(3*v_O2_obs_zone_volume)
#----------------------------------------------------------------------------------------------------------------------

#obervation group for O2
group                   obs_O2 dynamic O2_zone region obs_O2 every 1000
dynamic group obs_O2 defined
minimize                1e-6 1e-6 1000 10000 # shift atom locations to minimize the potential energy of the system. Helps if we accidentally introduce atoms that are overlapping and repel each other very strongly.
WARNING: Using a manybody potential with bonds/angles/dihedrals and special_bond exclusions (src/pair.cpp:251)
Neighbor list info ...
  update: every = 1 steps, delay = 0 steps, check = yes
  max neighbors/atom: 2000, page size: 100000
  master list distance cutoff = 16.5
  ghost atom cutoff = 16.5
  binsize = 8.25, bins = 8 8 16
  3 neighbor lists, perpetual/occasional/extra = 3 0 0
  (1) pair lj/cut, perpetual, skip from (3)
      attributes: half, newton on
      pair build: skip
      stencil: none
      bin: none
  (2) pair eam/fs, perpetual, skip from (3)
      attributes: half, newton on
      pair build: skip
      stencil: none
      bin: none
  (3) neighbor class addition, perpetual
      attributes: half, newton on
      pair build: half/bin/newton
      stencil: half/bin/3d
      bin: standard
Per MPI rank memory allocation (min/avg/max) = 12.61 | 21 | 23.17 Mbytes
   Step          Temp          E_pair         E_mol          TotEng         Press          Volume    
         0   0              18797677       1.097712       18797678       2.5178175e+08  478178.53    
        83   0             -8010.2114      0.00059060685 -8010.2108      41017.588      478178.53    
Loop time of 0.7022 on 24 procs for 83 steps with 3900 atoms

99.7% CPU use with 24 MPI tasks x 1 OpenMP threads

Minimization stats:
  Stopping criterion = energy tolerance
  Energy initial, next-to-last, final = 
      18797678.2534223  -8010.20704296611  -8010.21077590974
  Force two-norm initial, final = 5.9855379e+08 3.1949759
  Force max component initial, final = 3.7165121e+08 0.71265747
  Final line search alpha, max atom move = 0.092902879 0.06620793
  Iterations, force evaluations = 83 150

MPI task timing breakdown:
Section |  min time  |  avg time  |  max time  |%varavg| %total
---------------------------------------------------------------
Pair    | 0.63948    | 0.65317    | 0.65847    |   0.9 | 93.02
Bond    | 3.9273e-05 | 5.3783e-05 | 8.3305e-05 |   0.0 |  0.01
Neigh   | 0.017755   | 0.018158   | 0.018541   |   0.2 |  2.59
Comm    | 0.0029086  | 0.011472   | 0.03268    |  10.6 |  1.63
Output  | 0          | 0          | 0          |   0.0 |  0.00
Modify  | 1.6541e-05 | 7.4848e-05 | 0.00058386 |   0.0 |  0.01
Other   |            | 0.01927    |            |       |  2.74

Nlocal:          162.5 ave        1306 max           6 min
Histogram: 20 0 0 2 0 0 0 0 0 2
Nghost:        1307.38 ave        5369 max          85 min
Histogram: 18 0 0 0 0 0 0 2 2 2
Neighs:              0 ave           0 max           0 min
Histogram: 24 0 0 0 0 0 0 0 0 0

Total # of neighbors = 0
Ave neighs/atom = 0
Ave special neighs/atom = 0.073846154
Neighbor list builds = 2
Dangerous builds = 0

velocity                all create ${T} ${seed} rot yes mom no
velocity                all create 300 ${seed} rot yes mom no
velocity                all create 300 20000 rot yes mom no
velocity                bottom set 0.0 0.0 0.
velocity                middle create ${T} ${seed} mom yes rot no dist gaussian
velocity                middle create 300 ${seed} mom yes rot no dist gaussian
velocity                middle create 300 20000 mom yes rot no dist gaussian

#variable                P equal ${P}
#fix                     integrator mobile npt temp ${T} ${T} 100 z 1.0 1.0 1000
#fix                     integrator mobile npt temp ${T} ${T} 100 x 1.0 1.0 1000 y 1.0 1.0 1000
#fix                      integrator mobile npt temp ${T} ${T} 100 x ${P} ${P} 1000 y ${P} ${P} 1000
fix                     integrator_O2 O2_zone nvt temp ${T} ${T} 100
fix                     integrator_O2 O2_zone nvt temp 300 ${T} 100
fix                     integrator_O2 O2_zone nvt temp 300 300 100

fix                     integrator_Ti upper nve
fix                     Ti_thermostat middle nvt temp ${T} ${T} 0.1
fix                     Ti_thermostat middle nvt temp 300 ${T} 0.1
fix                     Ti_thermostat middle nvt temp 300 300 0.1

fix                     zwalls all wall/reflect zlo EDGE zhi EDGE #reflective walls on the top and bottom surface to stop O2 molecules being lost

#----------------------------------------------------------------------------------------------------------------------

#count the number of atoms
variable                n_obs equal count(obs)

#measure the temperature of physisorption region
compute                 obsTemp obs temp

#measure temperature of Ti
compute                 obs_TiTemp obs_Ti temp

#measure temperature of O2
compute                 obs_O2Temp obs_O2 temp

#measure temperature of middle layer
compute                 T_middle middle temp

#____________________________________________________________________________________________________________________________

#outputs
thermo_style            custom step etotal ke pe density temp c_obsTemp c_obs_TiTemp c_T_middle c_obs_O2Temp press v_O2pressure v_n_obs # what to print
thermo                  1000 # print every 1000 timesteps

dump                    traj all custom 1000 dumps_shock/dump_${T}_${P}.dump id type x y z vx vy vz
dump                    traj all custom 1000 dumps_shock/dump_300_${P}.dump id type x y z vx vy vz
dump                    traj all custom 1000 dumps_shock/dump_300_12.5.dump id type x y z vx vy vz

restart                 250000 restarts_shock/restart.*

run                     5000000
WARNING: Using a manybody potential with bonds/angles/dihedrals and special_bond exclusions (src/pair.cpp:251)
Per MPI rank memory allocation (min/avg/max) = 11.72 | 19.22 | 21 Mbytes
   Step         TotEng         KinEng         PotEng        Density          Temp        c_obsTemp     c_obs_TiTemp    c_T_middle    c_obs_O2Temp      Press       v_O2pressure     v_n_obs    
        83  -7899.7437      110.46712     -8010.2108      0.61640401     219.18718      0              297.25868      300            294.66233      41264.341      25707.057      0            
      1000  -7838.0713      102.85223     -7940.9236      0.61640401     204.07783      579.5345       254.04578      309.45476      278.02256      40651.917      25325.526      12           
      2000  -7825.7619      107.02268     -7932.7846      0.61640401     212.35278      424.80916      291.90187      289.11825      262.88017      40752.354      25388.097      17           
      3000  -7821.3845      109.17757     -7930.5621      0.61640401     216.62848      313.45503      294.31214      306.62576      251.20352      40703.28       25357.525      21           
      4000  -7821.9151      109.57844     -7931.4935      0.61640401     217.42388      305.81379      295.55136      308.82893      246.78514      40659.944      25330.527      30           
      5000  -7825.6116      108.69051     -7934.3021      0.61640401     215.66206      308.40663      293.65599      303.21296      252.75158      40866.979      25459.507      35           
      6000  -7824.2391      110.14293     -7934.382       0.61640401     218.54394      227.12427      298.37205      306.95821      263.49926      40779.898      25405.257      38           
      7000  -7828.1181      109.32407     -7937.4422      0.61640401     216.91917      293.60387      300.1306       291.96718      278.37099      40474.102      25214.75       45           
      8000  -7822.6688      111.965       -7934.6338      0.61640401     222.15925      331.50609      301.18921      307.02555      284.08056      40521.674      25244.387      47           
      9000  -7827.3387      109.02828     -7936.367       0.61640401     216.33227      318.71657      291.24187      301.10212      282.08797      40622.1        25306.951      34           
     10000  -7824.1212      109.73543     -7933.8566      0.61640401     217.73538      293.80317      292.20837      308.34142      272.64527      40508.585      25236.233      40           
     11000  -7826.3356      109.58022     -7935.9159      0.61640401     217.42742      282.99232      299.72642      300.32798      258.39701      40455.013      25202.858      45           
     12000  -7823.5737      110.62976     -7934.2035      0.61640401     219.50989      303.53761      302.15634      306.14439      249.75797      40370.085      25149.95       40           
     13000  -7823.7648      107.8226      -7931.5874      0.61640401     213.93997      279.02737      299.74102      289.51717      250.0684       40779.923      25405.272      39           
     14000  -7823.9767      111.89994     -7935.8767      0.61640401     222.03016      249.36492      307.79889      308.44799      254.00881      40489.684      25224.458      48           
     15000  -7826.9913      107.65852     -7934.6498      0.61640401     213.61441      310.18596      292.21782      294.98344      260.95454      40576.973      25278.837      43           
     16000  -7824.7787      112.22063     -7936.9993      0.61640401     222.66648      369.88445      305.15446      304.18057      270.4544       40544.372      25258.528      55           
     17000  -7822.7674      113.59421     -7936.3616      0.61640401     225.3919       348.03279      312.20836      305.06409      269.80353      40518.712      25242.542      60           
     18000  -7827.4113      110.94263     -7938.3539      0.61640401     220.13068      305.74564      310.91455      288.28741      274.6336       40604.693      25296.107      52           
     19000  -7825.0757      111.54605     -7936.6218      0.61640401     221.32799      305.88744      309.51399      297.24055      265.73194      40513.141      25239.071      56           
     20000  -7824.6831      111.09503     -7935.7781      0.61640401     220.43307      323.31927      310.37497      293.69862      259.10985      40665.676      25334.098      48           
     21000  -7824.7921      108.51383     -7933.3059      0.61640401     215.31149      335.05763      293.52786      299.54734      254.45854      40454.113      25202.298      53           
     22000  -7828.9932      108.00505     -7936.9982      0.61640401     214.30198      292.22179      293.21781      297.80129      256.00762      40531.751      25250.665      56           
     23000  -7829.1444      107.24787     -7936.3923      0.61640401     212.7996       227.62513      294.07035      293.75451      260.79727      40682.85       25344.797      70           
     24000  -7825.304       110.62564     -7935.9296      0.61640401     219.50171      266.86497      302.21153      303.01252      266.42123      40477.002      25216.557      60           
     25000  -7825.1045      109.30971     -7934.4142      0.61640401     216.89067      308.17757      301.91297      290.25514      270.18191      40705.324      25358.799      55           
     26000  -7823.3202      110.52211     -7933.8423      0.61640401     219.2963       271.5028       310.39028      288.28313      272.26639      40306.426      25110.291      55           
     27000  -7819.5261      114.39307     -7933.9191      0.61640401     226.977        310.35821      309.53173      315.36042      276.89147      40522.055      25244.625      62           
     28000  -7823.436       110.58448     -7934.0205      0.61640401     219.42005      273.48639      310.48328      288.32276      273.56187      40518.196      25242.221      54           
     29000  -7825.3953      110.75641     -7936.1517      0.61640401     219.76118      300.03711      295.24812      309.80687      276.70645      40683.842      25345.416      60           
     30000  -7826.3222      108.44154     -7934.7637      0.61640401     215.16807      295.7449       290.81142      300.59974      271.45131      40273.338      25089.678      56           
     31000  -7825.9273      107.95556     -7933.8828      0.61640401     214.20378      267.77916      296.52978      289.47184      273.45026      40643.634      25320.366      55           
     32000  -7824.4804      110.30915     -7934.7895      0.61640401     218.87374      312.34697      293.70412      308.23635      276.24496      40604.166      25295.779      57           
     33000  -7826.6239      108.83369     -7935.4576      0.61640401     215.94615      332.62908      288.60274      303.1965       277.6756       40549.725      25261.863      56           
     34000  -7822.1292      112.5395      -7934.6687      0.61640401     223.29917      333.37803      303.59934      307.72864      281.12027      40642.044      25319.376      63           
     35000  -7825.653       112.48101     -7938.134       0.61640401     223.18312      326.04709      305.5497       306.5097       273.916        40575.572      25277.965      64           
     36000  -7828.2574      110.44077     -7938.6981      0.61640401     219.1349       324.02317      292.05112      312.0117       268.8952       40695.861      25352.903      75           
     37000  -7829.3638      109.33436     -7938.6982      0.61640401     216.93958      277.56829      297.68243      297.92635      271.86689      40352.391      25138.927      67           
     38000  -7825.7978      109.76929     -7935.5671      0.61640401     217.80256      311.87031      295.31347      303.51172      267.97494      40818.439      25429.267      62           
     39000  -7828.8634      107.51186     -7936.3752      0.61640401     213.32341      263.49067      295.32506      289.64374      268.00485      40603.483      25295.353      70           
     40000  -7822.0415      111.5169      -7933.5584      0.61640401     221.27014      268.05213      299.61949      312.41238      269.95871      40608.604      25298.544      61           
     41000  -7827.1987      109.03153     -7936.2302      0.61640401     216.33872      303.02335      288.90397      308.01198      268.22466      40681.466      25343.935      61           
     42000  -7829.9932      108.73963     -7938.7329      0.61640401     215.75952      317.24384      297.92966      291.0146       270.38769      40513.822      25239.495      61           
     43000  -7823.0757      111.41707     -7934.4927      0.61640401     221.07206      335.52741      304.56356      300.61035      268.5533       40702.236      25356.874      64           
     44000  -7825.4804      111.51652     -7936.9969      0.61640401     221.26939      267.47253      308.1107       299.14703      273.20382      40447.027      25197.884      61           
     45000  -7824.7098      110.29264     -7935.0024      0.61640401     218.84098      366.67617      298.43289      300.30125      263.08632      40759.587      25392.604      69           
     46000  -7828.76        109.1143      -7937.8743      0.61640401     216.50295      279.78156      299.57151      294.92592      265.48082      40232.737      25064.384      68           
     47000  -7826.4325      109.56968     -7936.0022      0.61640401     217.4065       262.12059      297.22206      302.04618      268.12358      40868.699      25460.578      59           
     48000  -7827.3107      109.51742     -7936.8282      0.61640401     217.3028       289.23913      291.81885      308.51407      266.75409      40548.716      25261.234      60           
     49000  -7827.108       110.92763     -7938.0356      0.61640401     220.10092      384.57116      303.8898       294.99213      269.17095      40487.65       25223.191      62           
     50000  -7824.664       110.8856      -7935.5496      0.61640401     220.01753      287.24776      304.07781      300.01285      269.87345      40504.484      25233.678      69           
     51000  -7825.5418      109.60564     -7935.1475      0.61640401     217.47785      284.66868      301.07345      293.5107       275.17259      40580.451      25281.004      64           
     52000  -7824.9424      111.17176     -7936.1142      0.61640401     220.58532      249.51588      303.28513      304.26893      275.60953      40759.13       25392.319      67           
     53000  -7822.652       112.31067     -7934.9627      0.61640401     222.84513      267.58024      308.70966      304.44708      272.7171       40233.731      25065.003      66           
     54000  -7823.5772      112.56556     -7936.1428      0.61640401     223.35087      316.73799      304.6496       307.86125      276.84177      40726.192      25371.799      73           
     55000  -7826.3213      112.04894     -7938.3702      0.61640401     222.3258       309.1359       302.16054      307.87509      278.55846      40404.841      25171.602      74           
     56000  -7824.7809      110.43024     -7935.2112      0.61640401     219.114        309.47666      297.86947      304.08395      270.08524      40855.842      25452.569      73           
     57000  -7821.3897      111.7512      -7933.1409      0.61640401     221.73504      334.47062      304.45135      302.69857      269.54657      40269.273      25087.145      70           
     58000  -7826.0873      108.07836     -7934.1656      0.61640401     214.44743      292.03912      293.5822       295.75795      262.18587      40653.246      25326.355      75           
     59000  -7827.6867      108.94071     -7936.6274      0.61640401     216.15851      313.09872      287.80346      308.11469      268.66647      40541.259      25256.588      67           
     60000  -7822.9749      111.32499     -7934.2999      0.61640401     220.88936      272.97308      301.65966      308.00934      269.91363      40465.708      25209.522      70           
     61000  -7826.0841      111.86032     -7937.9444      0.61640401     221.95155      289.28845      299.42954      312.96163      274.44217      40481.742      25219.51       69           
     62000  -7826.5816      111.65509     -7938.2367      0.61640401     221.54434      318.49449      308.71241      296.22652      272.75581      40505.059      25234.036      68           
     63000  -7823.5064      111.83706     -7935.3434      0.61640401     221.9054       309.90272      305.1801       302.47449      276.01438      40705.263      25358.761      71           
     64000  -7826.6487      110.98693     -7937.6356      0.61640401     220.21858      269.2734       303.66754      301.12473      276.01502      40440.217      25193.641      74           
     65000  -7829.4704      109.34207     -7938.8124      0.61640401     216.95488      294.32529      292.35257      304.83142      271.21551      40611.762      25300.51       75           
     66000  -7824.8445      108.74933     -7933.5938      0.61640401     215.77877      254.97431      293.519        301.51052      269.78304      40561.966      25269.489      61           
     67000  -7823.0533      110.75815     -7933.8114      0.61640401     219.76464      270.16364      294.60044      315.51401      264.91366      40750.167      25386.735      70           
     68000  -7828.4144      107.94153     -7936.356       0.61640401     214.17596      280.13467      290.3569       300.195        263.77182      40360.614      25144.049      71           
     69000  -7828.7701      109.87567     -7938.6457      0.61640401     218.01364      289.23398      305.86755      290.56988      265.5685       40444.381      25196.235      76           
     70000  -7827.4626      107.83907     -7935.3017      0.61640401     213.97265      263.45193      295.93081      290.60861      270.58105      40607.636      25297.94       74           
     71000  -7825.4087      110.79928     -7936.208       0.61640401     219.84625      321.49386      300.7335       300.60404      273.73527      40367.063      25148.067      75           
     72000  -7829.3073      107.9289      -7937.2362      0.61640401     214.15088      281.62242      297.1691       287.21308      274.12562      40731.208      25374.924      84           
     73000  -7830.9047      109.01713     -7939.9219      0.61640401     216.31013      269.78217      296.7155       296.87336      273.71102      40575.843      25278.134      71           
     74000  -7829.9798      108.28763     -7938.2674      0.61640401     214.86267      286.59036      296.76596      290.63966      271.39812      40687.96       25347.981      84           
     75000  -7826.8216      109.212       -7936.0336      0.61640401     216.69679      289.35323      298.61003      294.45335      272.19687      40375.92       25153.585      86           
     76000  -7824.8791      113.04347     -7937.9226      0.61640401     224.29914      279.40829      309.07385      308.46102      272.93294      40722.222      25369.326      86           
     77000  -7825.6481      110.40672     -7936.0548      0.61640401     219.06733      280.33489      299.98325      301.73204      273.76813      40459.709      25205.784      81           
     78000  -7822.8024      111.63344     -7934.4358      0.61640401     221.50137      293.21177      298.43561      312.50721      272.56325      40469.663      25211.985      91           
     79000  -7822.4774      111.604       -7934.0814      0.61640401     221.44297      296.64818      304.92546      301.27392      277.65341      40593.913      25289.391      93           
     80000  -7827.3515      111.00026     -7938.3518      0.61640401     220.24504      314.46992      307.92747      290.26326      280.57134      40467.891      25210.882      85           
     81000  -7823.1551      111.53415     -7934.6893      0.61640401     221.30436      275.77425      303.94327      304.22426      276.54429      40741.26       25381.186      80           
     82000  -7826.8484      109.50108     -7936.3495      0.61640401     217.27038      278.80653      301.29196      292.73354      276.10545      40511.757      25238.209      81           
     83000  -7823.0727      110.94669     -7934.0194      0.61640401     220.13874      278.80455      302.21965      302.884        273.32558      40733.808      25376.543      83           
     84000  -7826.8258      110.33531     -7937.1611      0.61640401     218.92565      307.50875      299.70542      300.94155      268.20824      40259.75       25081.213      81           
     85000  -7824.6314      112.25069     -7936.8821      0.61640401     222.72612      311.18815      304.97288      305.00195      278.29279      40850.617      25449.314      78           
     86000  -7826.6162      109.69167     -7936.3079      0.61640401     217.64855      301.00225      298.99889      294.78725      280.78165      40555.067      25265.191      70           
     87000  -7823.4568      112.01172     -7935.4685      0.61640401     222.25195      331.32868      305.31765      300.4015       282.17108      40568.195      25273.369      72           
     88000  -7824.2536      110.81648     -7935.07        0.61640401     219.88039      299.27619      306.11052      291.96466      284.26106      40475.453      25215.592      77           
     89000  -7824.9219      112.12455     -7937.0464      0.61640401     222.47582      291.84771      307.29755      301.8103       279.13788      40523.906      25245.778      78           
     90000  -7824.9815      112.05926     -7937.0408      0.61640401     222.34628      292.70407      305.3524       303.68035      281.65001      40708.579      25360.826      70           
     91000  -7827.2531      112.03458     -7939.2877      0.61640401     222.29731      307.75591      312.40027      293.16238      276.97056      40297.374      25104.652      69           
     92000  -7825.0897      109.63576     -7934.7255      0.61640401     217.53761      301.78977      290.22746      308.76647      275.09931      40942.619      25506.629      72           
     93000  -7825.0604      110.2028      -7935.2632      0.61640401     218.66273      294.54472      297.01314      303.24259      276.51428      40325.97       25122.467      69           
     94000  -7826.7843      110.35408     -7937.1384      0.61640401     218.96289      302.65425      301.82262      296.11278      278.61585      40722.392      25369.431      72           
     95000  -7823.7882      111.53987     -7935.3281      0.61640401     221.31571      328.26966      305.12692      296.59763      286.16375      40368.823      25149.164      71           
     96000  -7823.7121      114.44774     -7938.1598      0.61640401     227.08547      341.16895      313.48073      306.38912      280.94359      40650.178      25324.443      75           
     97000  -7825.1699      110.07408     -7935.244       0.61640401     218.40732      325.26273      296.3674       301.37637      274.93202      40513.189      25239.101      72           
     98000  -7826.2534      108.59191     -7934.8454      0.61640401     215.46643      285.50109      288.38536      304.82164      274.67378      40603.855      25295.585      68           
     99000  -7824.4255      111.28085     -7935.7064      0.61640401     220.80178      293.3281       295.25977      314.42198      274.19306      40791.725      25412.625      74           
    100000  -7825.7525      108.57808     -7934.3306      0.61640401     215.43897      280.53985      293.15769      298.63788      271.47189      40346.132      25135.027      77           
    101000  -7821.0294      113.10177     -7934.1312      0.61640401     224.41483      266.67477      303.0378       317.34947      279.56075      40569.006      25273.874      78           
    102000  -7823.4488      110.56525     -7934.014       0.61640401     219.38188      318.05567      295.49422      305.55762      278.96707      40273.036      25089.49       79           
    103000  -7824.1116      109.72245     -7933.8341      0.61640401     217.70962      285.8653       302.48549      290.18652      283.86218      40786.935      25409.641      77           
    104000  -7823.2676      111.06263     -7934.3302      0.61640401     220.36878      308.46337      302.68012      298.21782      284.88587      40182.414      25033.033      73           
    105000  -7826.0512      110.34222     -7936.3935      0.61640401     218.93937      313.32908      301.7703       293.54358      286.53081      40658.473      25329.611      66           
    106000  -7823.459       112.8489      -7936.3079      0.61640401     223.91308      324.4171       306.85302      304.9603       283.20279      40586.853      25284.993      65           
    107000  -7823.4627      110.71678     -7934.1795      0.61640401     219.68255      323.71459      301.58514      296.66991      283.02828      40418.615      25180.183      72           
    108000  -7826.5522      110.7459      -7937.2981      0.61640401     219.74034      278.30557      298.67981      304.77241      280.5448       40656.314      25328.266      61           
    109000  -7821.4176      111.49664     -7932.9143      0.61640401     221.22994      297.894        299.24993      308.75093      279.17724      40586.784      25284.95       62           
    110000  -7824.4711      112.01012     -7936.4812      0.61640401     222.24878      257.79271      310.78925      297.98653      279.44729      40810.19       25424.129      68           
    111000  -7825.9662      111.72455     -7937.6908      0.61640401     221.68216      286.4704       299.02413      309.94251      285.62137      40462.222      25207.35       73           
    112000  -7828.4142      110.22574     -7938.6399      0.61640401     218.70825      270.22913      312.71415      278.09802      291.21585      40766.486      25396.902      65           
    113000  -7823.3909      112.07187     -7935.4627      0.61640401     222.37131      309.56038      299.19679      307.89458      297.89983      40409.549      25174.535      61           
    114000  -7825.3867      110.46738     -7935.8541      0.61640401     219.18771      312.20635      296.33174      299.11826      300.62328      40633.832      25314.26       69           
    115000  -7822.6998      110.81115     -7933.5109      0.61640401     219.86981      347.12116      289.24657      311.41405      295.44496      40604.493      25295.982      64           
    116000  -7823.3461      110.89399     -7934.2401      0.61640401     220.03417      331.91643      297.46576      301.20715      293.50298      40449.323      25199.314      66           
    117000  -7825.2059      108.19413     -7933.4         0.61640401     214.67716      321.56469      290.96026      290.86876      294.91771      40734.253      25376.82       64           
    118000  -7823.1749      109.4453      -7932.6202      0.61640401     217.15971      269.06099      297.36082      294.67181      291.91634      40483.815      25220.802      60           
    119000  -7821.8565      113.38672     -7935.2432      0.61640401     224.98021      273.93127      306.66686      308.87556      297.88484      40712.198      25363.081      63           
    120000  -7820.1367      113.12658     -7933.2633      0.61640401     224.46405      302.85822      312.0186       296.752        299.97965      40421.569      25182.023      70           
    121000  -7823.7177      111.01321     -7934.7309      0.61640401     220.27073      332.72334      301.31956      293.63213      305.03285      40613.74       25301.743      62           
    122000  -7824.5886      113.13126     -7937.7199      0.61640401     224.47334      338.23401      302.64152      305.21644      312.95138      40462.34       25207.423      66           
    123000  -7823.54        110.5904      -7934.1304      0.61640401     219.43179      348.00215      295.15244      297.37412      309.08026      40595.153      25290.164      68           
    124000  -7824.7293      109.34112     -7934.0704      0.61640401     216.95299      286.47515      294.16531      295.28011      301.5441       40571.648      25275.52       66           
    125000  -7819.0808      114.03022     -7933.111       0.61640401     226.25703      277.61837      303.65959      317.05178      301.1821       40569.878      25274.417      60           
    126000  -7822.4075      111.41985     -7933.8274      0.61640401     221.07758      325.16649      291.7566       314.57203      291.1874       40617.794      25304.269      67           
    127000  -7825.7837      108.64611     -7934.4298      0.61640401     215.57397      350.46424      292.07508      293.52973      283.91638      40319.507      25118.44       65           
    128000  -7824.6847      110.12213     -7934.8068      0.61640401     218.50265      282.56246      302.1462       293.05252      287.25768      40870.557      25461.736      56           
    129000  -7820.799       112.64016     -7933.4392      0.61640401     223.49889      244.68836      313.79535      296.29379      289.13406      40385.494      25159.549      56           
    130000  -7826.3356      109.55578     -7935.8914      0.61640401     217.37893      284.06714      290.7678       303.61179      295.30402      40840.593      25443.069      64           
    131000  -7826.7883      109.43291     -7936.2212      0.61640401     217.13512      272.46694      292.83775      299.32308      299.45511      40178.862      25030.821      65           
    132000  -7825.1681      110.3425      -7935.5106      0.61640401     218.93992      313.07673      299.04157      293.82497      302.5546       40755.051      25389.777      55           
    133000  -7823.1969      111.39319     -7934.5901      0.61640401     221.02467      281.28623      300.18642      301.93067      301.74811      40643.535      25320.305      57           
    134000  -7826.8019      110.61133     -7937.4132      0.61640401     219.47333      348.12634      290.32115      308.68066      294.60223      40533.772      25251.924      60           
    135000  -7823.2459      110.01263     -7933.2586      0.61640401     218.28538      311.79423      299.4948       292.55847      294.53294      40503.469      25233.046      68           
    136000  -7823.8121      112.26712     -7936.0792      0.61640401     222.75872      314.79963      308.07623      297.37706      291.7268       40430.202      25187.402      63           
    137000  -7824.3898      109.81243     -7934.2023      0.61640401     217.88815      306.92986      303.6162       284.89307      296.27041      40663.838      25332.953      61           
    138000  -7824.801       111.30464     -7936.1057      0.61640401     220.84898      255.60621      292.58129      314.83943      299.8268       40354.387      25140.17       67           
    139000  -7826.1594      110.26971     -7936.4291      0.61640401     218.79549      310.85739      290.08567      307.2806       299.33429      40701.181      25356.217      68           
    140000  -7826.6383      111.20247     -7937.8408      0.61640401     220.64626      298.66397      295.775        306.62962      299.62177      40446.905      25197.807      69           
    141000  -7822.9246      110.33481     -7933.2595      0.61640401     218.92466      268.6785       298.87343      297.37705      299.01816      40763.527      25395.058      60           
    142000  -7826.3612      110.16385     -7936.525       0.61640401     218.58543      351.25334      293.55375      297.49166      303.5986       40335.061      25128.131      72           
    143000  -7825.499       110.05951     -7935.5585      0.61640401     218.3784       290.35007      298.7206       293.1007       304.44254      40728.378      25373.161      76           
    144000  -7825.1047      110.07662     -7935.1813      0.61640401     218.41236      308.01534      308.43722      278.35651      301.30407      40590.562      25287.304      70           
    145000  -7823.558       111.07979     -7934.6378      0.61640401     220.40284      310.30604      300.4319       298.69562      296.8421       40427.329      25185.612      71           
    146000  -7821.1294      113.10994     -7934.2393      0.61640401     224.43103      309.21118      305.26793      307.0409       296.44403      40667.648      25335.327      70           
    147000  -7825.7697      109.9317      -7935.7014      0.61640401     218.12481      334.7172       300.87532      290.0563       287.98761      40427.56       25185.756      68           
    148000  -7822.5533      112.94698     -7935.5003      0.61640401     224.10769      313.52914      307.33046      304.86987      286.3964       40943.797      25507.363      69           
    149000  -7824.359       111.70044     -7936.0594      0.61640401     221.63432      296.69195      305.56478      299.24373      286.50958      40192.317      25039.203      71           
    150000  -7827.9871      109.04526     -7937.0323      0.61640401     216.36596      291.41082      293.19172      296.88083      290.65171      40801.501      25418.715      71           
    151000  -7825.4637      109.01854     -7934.4823      0.61640401     216.31294      278.79544      294.93261      294.04645      294.67642      40327.316      25123.305      75           
    152000  -7824.978       110.08261     -7935.0606      0.61640401     218.42426      329.60373      296.32378      297.54874      289.46513      40633.486      25314.045      75           
    153000  -7827.6699      109.22079     -7936.8907      0.61640401     216.71423      312.18306      294.81166      294.01314      291.21406      40340.041      25131.233      83           
    154000  -7823.4858      110.45219     -7933.938       0.61640401     219.15756      310.16397      300.89297      292.94803      297.86381      40475.893      25215.866      81           
    155000  -7819.6847      114.1497      -7933.8344      0.61640401     226.4941       296.37042      312.65889      305.69906      292.58343      40640.06       25318.14       66           
    156000  -7822.1093      111.58664     -7933.6959      0.61640401     221.40853      325.83753      304.65856      297.547        287.45652      40101.548      24982.655      70           
    157000  -7822.3876      112.01084     -7934.3984      0.61640401     222.25022      308.86512      305.66545      301.22597      284.10083      40861.504      25456.096      73           
    158000  -7822.6968      109.75906     -7932.4558      0.61640401     217.78226      301.40971      293.22909      303.13767      284.54964      40220.119      25056.523      63           
    159000  -7820.9889      114.525       -7935.5139      0.61640401     227.23877      339.50273      306.00786      318.95056      278.85442      40836.677      25440.629      68           
    160000  -7819.6689      111.47327     -7931.1422      0.61640401     221.18358      301.88221      300.15148      305.70004      284.5837       40415.885      25178.482      65           
    161000  -7823.6016      110.39056     -7933.9922      0.61640401     219.03527      341.25219      297.14308      300.13254      281.5908       40590.297      25287.138      68           
    162000  -7819.2306      112.5747      -7931.8053      0.61640401     223.36902      316.53205      305.27723      305.41571      284.88829      40456.661      25203.885      67           
    163000  -7824.2227      111.63163     -7935.8543      0.61640401     221.49778      311.11801      302.41888      304.64634      277.46305      40514.632      25240          71           
    164000  -7819.4374      114.80499     -7934.2424      0.61640401     227.79433      249.50934      310.8599       317.7644       284.88524      40641.336      25318.935      57           
    165000  -7821.2939      112.24035     -7933.5342      0.61640401     222.70559      281.31266      316.32009      290.09259      280.17911      40408.06       25173.607      67           
    166000  -7819.3644      113.93917     -7933.3036      0.61640401     226.07637      311.81139      314.03838      304.52903      278.82982      41071.097      25586.67       56           
    167000  -7820.4643      111.28136     -7931.7457      0.61640401     220.80278      306.31424      304.87481      299.0568       276.69071      40311.878      25113.688      61           
    168000  -7821.6965      114.06954     -7935.7661      0.61640401     226.33504      322.91139      313.05421      307.56233      273.98638      40872.771      25463.115      58           
    169000  -7821.4253      113.11474     -7934.5401      0.61640401     224.44055      332.02012      314.74067      295.93867      279.26561      40439.646      25193.285      63           
    170000  -7822.3193      113.57719     -7935.8965      0.61640401     225.35814      318.13292      310.67078      305.14319      282.95092      40512.905      25238.924      69           
    171000  -7825.2122      110.54762     -7935.7598      0.61640401     219.34692      293.39628      302.74534      294.04935      290.06268      40437.778      25192.122      83           
    172000  -7824.8376      109.17082     -7934.0084      0.61640401     216.61509      327.48085      292.89372      295.6377       291.3247       40535.131      25252.771      71           
    173000  -7823.4113      112.61273     -7936.0241      0.61640401     223.44447      323.55508      302.82087      307.84012      288.7981       40772.48       25400.636      67           
    174000  -7823.6723      110.62134     -7934.2936      0.61640401     219.49318      281.01128      302.15795      297.34346      286.15475      40131.869      25001.544      75           
    175000  -7826.4954      108.68554     -7935.1809      0.61640401     215.65219      277.1279       299.76603      290.11383      271.07555      40718.536      25367.029      65           
    176000  -7825.6784      110.68469     -7936.363       0.61640401     219.61889      274.71051      301.33461      301.57783      277.12467      40381.671      25157.167      67           
    177000  -7828.5833      109.49891     -7938.0822      0.61640401     217.26608      282.99333      296.79156      297.69782      281.38258      40804.598      25420.645      60           
    178000  -7824.1531      109.43528     -7933.5884      0.61640401     217.13982      288.40657      295.57669      299.2251       278.8671       40416.679      25178.977      61           
    179000  -7824.3279      110.12185     -7934.4498      0.61640401     218.5021       267.23287      301.60743      294.38831      288.74202      40817.916      25428.942      63           
    180000  -7826.6755      109.61224     -7936.2878      0.61640401     217.49095      355.22844      293.14152      296.73101      291.46735      40308.446      25111.549      70           
    181000  -7822.8128      109.59389     -7932.4067      0.61640401     217.45453      255.40057      300.12836      294.36578      286.02899      40637.67       25316.651      73           
    182000  -7823.7455      111.51109     -7935.2566      0.61640401     221.25861      303.46023      306.05987      296.92574      284.8523       40765.66       25396.387      70           
    183000  -7825.6825      110.57844     -7936.2609      0.61640401     219.40806      317.73149      300.69367      297.11407      284.59186      40514.679      25240.03       63           
    184000  -7828.4953      108.49414     -7936.9894      0.61640401     215.27243      329.44931      286.00362      302.18969      284.37479      40781.277      25406.116      73           
    185000  -7825.7543      111.41705     -7937.1713      0.61640401     221.07202      347.32003      298.05765      303.61303      289.99142      40227.914      25061.379      75           
    186000  -7826.3297      109.06463     -7935.3944      0.61640401     216.40439      341.93397      291.35053      295.09447      294.7657       40804.024      25420.287      76           
    187000  -7825.4762      112.20006     -7937.6762      0.61640401     222.62565      347.73884      302.4321       302.2929       293.25967      40570.795      25274.989      74           
    188000  -7823.2653      112.54322     -7935.8085      0.61640401     223.30656      365.60404      300.97173      305.78898      291.31717      40771.348      25399.93       81           
    189000  -7823.348       110.8555      -7934.2035      0.61640401     219.95781      280.06395      304.49166      293.28994      295.68665      40205.256      25047.263      68           
    190000  -7823.5334      111.50396     -7935.0374      0.61640401     221.24448      343.96728      308.08352      290.12757      288.84663      40715.854      25365.359      72           
    191000  -7827.6319      109.25749     -7936.8894      0.61640401     216.78706      404.17303      288.69361      298.5705       287.8592       40568.156      25273.345      67           
    192000  -7825.1929      109.61358     -7934.8065      0.61640401     217.4936       330.46642      297.85228      295.36392      274.63559      40431.866      25188.438      74           
    193000  -7824.3122      111.53752     -7935.8497      0.61640401     221.31105      339.41501      307.31138      295.37793      274.05702      40630.365      25312.1        73           
    194000  -7826.6105      109.51604     -7936.1266      0.61640401     217.30007      276.40265      293.00933      304.03653      281.01874      40413.335      25176.894      72           
    195000  -7827.0691      107.89867     -7934.9678      0.61640401     214.0909       286.31822      289.93352      295.61933      281.52648      40709.668      25361.505      68           
    196000  -7826.7085      110.17777     -7936.8863      0.61640401     218.61306      284.13216      304.56861      287.83265      295.51479      40611.06       25300.074      67           
    197000  -7827.1604      110.57081     -7937.7312      0.61640401     219.39292      292.02505      308.02426      284.62798      297.55067      40604.082      25295.726      61           
    198000  -7826.2305      111.05249     -7937.283       0.61640401     220.34867      337.89236      298.14454      300.94932      293.2943       40480.17       25218.531      69           
    199000  -7827.163       107.65926     -7934.8223      0.61640401     213.61588      312.75856      287.43271      295.12787      285.70291      40769.525      25398.794      54           
    200000  -7822.3853      112.10722     -7934.4925      0.61640401     222.44144      322.08927      304.31601      303.23212      283.44024      40562.126      25269.588      65           
    201000  -7825.8862      110.21607     -7936.1023      0.61640401     218.68906      289.28649      292.819        307.91268      284.19967      40621.063      25306.305      59           
    202000  -7821.0893      111.82583     -7932.9151      0.61640401     221.88311      280.89197      307.39066      299.39166      282.94557      40589.006      25286.334      72           
    203000  -7824.2397      107.11056     -7931.3502      0.61640401     212.52714      328.89999      282.75457      297.0323       282.13489      40605.856      25296.832      76           
    204000  -7823.7002      110.93491     -7934.6351      0.61640401     220.11537      305.77597      301.48734      299.10164      285.34813      40527.457      25247.99       72           
    205000  -7822.0948      111.00639     -7933.1012      0.61640401     220.25719      294.42158      299.1794       302.49346      290.96889      40388.682      25161.535      68           
    206000  -7820.133       113.8688      -7934.0018      0.61640401     225.93674      376.89504      302.14772      315.2041       288.00388      40764.251      25395.509      65           
    207000  -7824.528       112.83051     -7937.3585      0.61640401     223.87659      389.96739      300.99737      309.36519      283.47852      40524.58       25246.198      66           
    208000  -7828.2509      108.8723      -7937.1232      0.61640401     216.02276      342.69933      300.26389      284.26775      282.12521      40782.741      25407.028      60           
    209000  -7824.8013      110.78076     -7935.5821      0.61640401     219.8095       338.73121      296.49166      304.63193      280.01928      40607.012      25297.552      66           
    210000  -7821.9149      111.4402      -7933.3552      0.61640401     221.11796      335.39834      302.03495      300.91191      281.83507      40473.358      25214.287      72           
    211000  -7821.6242      114.27888     -7935.9031      0.61640401     226.75041      331.73632      310.44992      309.77386      282.86825      40611.11       25300.104      75           
    212000  -7822.1068      112.85322     -7934.96        0.61640401     223.92165      289.98758      303.82405      311.58245      283.32341      40584.446      25283.493      59           
    213000  -7819.7663      113.60192     -7933.3682      0.61640401     225.40721      332.27853      309.85015      305.30629      285.44414      40658.676      25329.737      62           
    214000  -7825.6938      113.03008     -7938.7239      0.61640401     224.27256      313.82218      296.49324      322.09583      286.1224       40433.865      25189.684      49           
    215000  -7825.1495      110.45732     -7935.6069      0.61640401     219.16774      339.60457      296.60666      301.03175      285.20235      40675.711      25340.35       61           
    216000  -7825.0794      112.1691      -7937.2485      0.61640401     222.56422      331.45279      305.89774      300.70365      285.30929      40436.806      25191.516      59           
    217000  -7822.4259      112.67566     -7935.1016      0.61640401     223.56934      343.01934      309.33774      299.82398      280.35372      40673.396      25338.908      62           
    218000  -7820.1328      113.8193      -7933.9521      0.61640401     225.83853      328.46822      307.31106      308.89103      293.30269      40605.121      25296.374      68           
    219000  -7821.9361      112.7883      -7934.7244      0.61640401     223.79283      379.21718      299.37915      311.0436       289.67372      40442.661      25195.163      61           
    220000  -7820.8115      113.28591     -7934.0974      0.61640401     224.78019      334.55091      305.31597      309.15433      287.64816      40756.661      25390.781      60           
    221000  -7826.4161      107.41203     -7933.8281      0.61640401     213.12532      280.09284      290.73858      290.83053      282.90979      40654.646      25327.227      61           
    222000  -7822.407       110.27195     -7932.6789      0.61640401     218.79994      314.94342      301.89907      295.10977      278.48351      40568.854      25273.78       56           
    223000  -7821.4306      112.82367     -7934.2542      0.61640401     223.86301      273.04826      311.14791      303.37934      276.48246      40470.203      25212.322      62           
    224000  -7825.4651      109.26824     -7934.7333      0.61640401     216.80838      302.90045      300.4168       291.32164      274.59909      40610.504      25299.727      53           
    225000  -7823.3179      110.36981     -7933.6877      0.61640401     218.9941       297.61577      293.65284      308.48497      280.20418      40532.036      25250.843      56           
    226000  -7825.4244      109.49316     -7934.9176      0.61640401     217.25468      306.66443      301.81732      287.93936      285.41244      40532.056      25250.855      59           
    227000  -7824.8361      111.06178     -7935.8978      0.61640401     220.36709      289.91062      298.33279      305.22519      288.05582      40532.838      25251.342      63           
    228000  -7826.9311      109.77039     -7936.7015      0.61640401     217.80473      291.77057      296.92535      295.86728      294.3687       40442.529      25195.081      62           
    229000  -7827.9093      109.44059     -7937.3499      0.61640401     217.15036      305.30869      298.22524      291.28227      291.98603      40789.798      25411.424      59           
    230000  -7822.4024      112.61408     -7935.0165      0.61640401     223.44714      316.20926      304.94906      305.02189      290.477        40321.58       25119.732      56           
    231000  -7822.9324      111.17029     -7934.1027      0.61640401     220.58241      262.39846      296.03005      311.55425      285.35119      40530.556      25249.921      56           
    232000  -7819.7462      112.89487     -7932.6411      0.61640401     224.00429      314.55605      304.55642      308.62169      286.75396      40660.182      25330.676      60           
    233000  -7825.8172      109.39506     -7935.2122      0.61640401     217.06002      346.2758       297.43259      291.39641      285.04323      40676.373      25340.762      62           
    234000  -7823.0205      110.54294     -7933.5635      0.61640401     219.33762      310.15273      298.31985      301.36258      283.52514      40426.923      25185.359      57           
    235000  -7824.6397      109.42163     -7934.0613      0.61640401     217.11273      305.81139      299.33049      290.72762      287.03586      40665.379      25333.913      60           
    236000  -7819.9691      111.99425     -7931.9634      0.61640401     222.21729      322.49449      301.99893      306.9004       280.15439      40624.895      25308.692      57           
    237000  -7820.9646      112.64827     -7933.6129      0.61640401     223.51499      323.77235      305.67897      305.2391       284.62962      40444.702      25196.435      59           
    238000  -7819.7828      111.60345     -7931.3862      0.61640401     221.44188      268.98041      304.06407      301.3785       290.61234      40700.522      25355.807      61           
    239000  -7823.8542      110.63833     -7934.4925      0.61640401     219.52689      279.39573      303.67135      294.53016      288.69823      40563.909      25270.699      63           
    240000  -7821.1989      111.17634     -7932.3752      0.61640401     220.59441      260.65845      302.02724      301.65439      290.99218      40612.788      25301.15       64           
    241000  -7821.511       111.59992     -7933.1109      0.61640401     221.43486      268.79406      303.07383      301.23319      296.67328      40623.36       25307.736      59           
    242000  -7825.9845      109.88409     -7935.8686      0.61640401     218.03034      315.03768      292.95625      299.8197       299.7779       40488.873      25223.953      65           
    243000  -7830.3113      107.86274     -7938.174       0.61640401     214.01962      280.23248      296.15228      282.51938      297.63518      40608.842      25298.691      62           
    244000  -7825.9525      109.51757     -7935.4701      0.61640401     217.3031       302.65357      292.76209      298.75757      297.28964      40542.793      25257.544      61           
    245000  -7820.9734      111.73968     -7932.7131      0.61640401     221.71219      276.10765      298.4764       307.83999      300.19647      40622.794      25307.384      61           
    246000  -7823.6423      110.38153     -7934.0238      0.61640401     219.01736      253.1235       297.77837      299.1784       305.03997      40485.113      25221.61       69           
    247000  -7824.7876      112.04645     -7936.8341      0.61640401     222.32086      302.20258      302.28724      301.46351      306.30217      40697.531      25353.944      66           
    248000  -7824.179       109.99652     -7934.1756      0.61640401     218.25343      230.77766      303.11017      290.3749       303.25621      40463.755      25208.304      70           
    249000  -7823.1322      112.62939     -7935.7616      0.61640401     223.47752      312.72165      302.31354      306.76704      299.32557      40444.967      25196.6        74           
    250000  -7823.9089      111.41974     -7935.3287      0.61640401     221.07736      314.77505      308.98414      289.46538      291.98023      40692.863      25351.036      71           
    251000  -7822.7651      112.28839     -7935.0535      0.61640401     222.80092      299.11542      300.81304      308.09386      296.36353      40607.009      25297.55       64           
    252000  -7822.22        112.20381     -7934.4238      0.61640401     222.63309      271.64772      297.61132      313.34555      299.47987      40478.529      25217.508      72           
    253000  -7829.5049      107.25826     -7936.7632      0.61640401     212.82022      255.54922      296.0085       279.4974       298.77837      40473.833      25214.583      65           
    254000  -7820.9266      111.62627     -7932.5529      0.61640401     221.48715      273.22668      308.13652      293.09544      300.37977      40691.444      25350.151      72           
    255000  -7826.9211      108.90466     -7935.8258      0.61640401     216.08698      313.33324      292.961        291.93378      301.8295       40447.566      25198.219      74           
    256000  -7828.9245      107.30432     -7936.2288      0.61640401     212.9116       320.15003      288.4059       285.99473      302.35898      40440.323      25193.707      77           
    257000  -7824.0646      111.45765     -7935.5222      0.61640401     221.15258      261.72362      298.73884      306.74603      299.95765      40745.269      25383.683      75           
    258000  -7821.4851      111.1725      -7932.6576      0.61640401     220.58678      313.09781      294.75221      307.2156       298.97234      40550.511      25262.352      63           
    259000  -7823.6371      111.06536     -7934.7024      0.61640401     220.37419      245.17207      303.03102      300.48739      290.30218      40382.039      25157.397      65           
    260000  -7822.6398      113.06324     -7935.703       0.61640401     224.33836      302.88943      303.52105      308.66743      300.48599      40662.374      25332.041      65           
    261000  -7825.3845      111.54935     -7936.9339      0.61640401     221.33452      303.41038      300.36218      301.73231      301.29851      40561.573      25269.244      68           
    262000  -7820.6852      112.73414     -7933.4193      0.61640401     223.68536      303.41054      302.87358      306.67744      302.35624      40599.259      25292.722      62           
    263000  -7823.5864      114.09628     -7937.6827      0.61640401     226.3881       297.00922      308.28707      309.25982      302.42379      40473.59       25214.431      61           
    264000  -7826.109       108.17926     -7934.2883      0.61640401     214.64765      256.97989      287.74803      296.84165      305.78674      40790.699      25411.986      64           
    265000  -7827.1833      107.49991     -7934.6832      0.61640401     213.29969      288.70419      291.94146      285.47208      297.75867      40441.838      25194.651      60           
    266000  -7826.9445      109.54234     -7936.4869      0.61640401     217.35226      262.3763       297.06499      293.19914      304.36398      40637.059      25316.271      62           
    267000  -7825.1808      110.34037     -7935.5212      0.61640401     218.9357       306.78546      296.39382      297.67461      303.6147       40434.021      25189.781      75           
    268000  -7822.7137      111.11788     -7933.8316      0.61640401     220.47841      308.57332      299.97346      297.98953      304.31255      40638.345      25317.071      69           
    269000  -7827.6371      107.66053     -7935.2977      0.61640401     213.61839      283.55659      285.70394      296.84517      295.65464      40645.939      25321.803      69           
    270000  -7822.1834      113.34949     -7935.5329      0.61640401     224.90633      274.80763      300.18801      319.79079      291.94099      40554.581      25264.888      73           
    271000  -7820.881       111.92663     -7932.8076      0.61640401     222.08313      281.91193      303.52244      302.95255      295.13364      40640.147      25318.194      78           
    272000  -7824.2796      109.62967     -7933.9093      0.61640401     217.52553      303.15218      294.52659      298.59912      289.98274      40407.965      25173.548      77           
    273000  -7826.4971      110.18769     -7936.6848      0.61640401     218.63275      294.6663       299.6605       296.51387      287.15751      40608.953      25298.761      72           
    274000  -7825.9163      110.66146     -7936.5777      0.61640401     219.57278      328.63914      297.29541      299.86449      291.93655      40481.122      25219.124      78           
    275000  -7823.8664      110.00813     -7933.8746      0.61640401     218.27646      291.04079      295.81033      300.33037      290.44125      40645.047      25321.247      82           
    276000  -7828.1565      110.64641     -7938.8029      0.61640401     219.54292      345.94792      296.72754      300.79469      284.28222      40537.939      25254.52       83           
    277000  -7825.2104      111.69448     -7936.9048      0.61640401     221.6225       329.70422      304.84959      297.02543      288.49456      40565.15       25271.472      83           
    278000  -7827.5516      110.03642     -7937.588       0.61640401     218.33259      308.04841      300.51835      292.09487      291.22105      40799.315      25417.353      76           
    279000  -7823.8334      110.28244     -7934.1158      0.61640401     218.82075      302.33039      299.87519      294.44222      295.13419      40424.705      25183.977      77           
    280000  -7822.1777      111.93036     -7934.108       0.61640401     222.09052      300.54244      297.73198      310.57309      293.27224      40308.64       25111.67       78           
    281000  -7825.8255      110.48233     -7936.3079      0.61640401     219.21737      322.84522      301.92599      293.01391      288.25719      40586.421      25284.724      77           
    282000  -7823.7949      111.04992     -7934.8448      0.61640401     220.34357      267.94275      305.48214      296.98325      283.50887      40888.441      25472.877      72           
    283000  -7822.7688      111.55729     -7934.3261      0.61640401     221.35027      295.46305      309.26223      293.12559      284.70169      40325.703      25122.301      72           
    284000  -7822.2446      111.86716     -7934.1118      0.61640401     221.96512      271.85839      298.45515      312.41085      288.21397      40583.433      25282.862      81           
    285000  -7818.4562      112.97905     -7931.4353      0.61640401     224.17131      326.89259      306.09614      305.41492      287.55973      40755.884      25390.297      76           
    286000  -7824.75        111.97167     -7936.7217      0.61640401     222.17249      332.2087       309.43687      289.77449      298.91895      40584.865      25283.754      81           
    287000  -7827.1944      110.03925     -7937.2336      0.61640401     218.33822      309.78391      297.45839      295.40673      296.56597      40617.894      25304.331      67           
    288000  -7828.5991      108.50371     -7937.1028      0.61640401     215.29141      302.56746      296.37218      283.63627      306.00632      40625.298      25308.943      79           
    289000  -7819.9982      113.03016     -7933.0283      0.61640401     224.27272      277.84703      306.4935       304.61995      306.36263      40639.846      25318.007      82           
    290000  -7821.1594      113.2551      -7934.4145      0.61640401     224.71905      320.18961      302.39108      310.05692      302.35445      40374.328      25152.593      77           
    291000  -7826.7765      110.17434     -7936.9509      0.61640401     218.60626      263.56388      293.15508      306.09948      296.01069      40557.101      25266.458      73           
    292000  -7830.5338      105.7282      -7936.262       0.61640401     209.78429      261.06311      281.01794      291.1859       294.2752       40443.833      25195.893      74           
    293000  -7825.1607      112.22634     -7937.387       0.61640401     222.67781      242.97802      305.95132      303.92419      296.86968      40630.84       25312.396      75           
    294000  -7825.2158      110.48433     -7935.7001      0.61640401     219.22133      247.04649      298.05371      302.73867      296.55974      40616.171      25303.258      84           
    295000  -7825.4062      110.24696     -7935.6532      0.61640401     218.75035      290.29126      295.28214      301.24257      297.72214      40664.749      25333.521      76           
    296000  -7827.8908      110.14315     -7938.0339      0.61640401     218.54437      280.72281      298.03205      294.88675      306.78278      40737.09       25378.588      72           
    297000  -7821.4261      113.76475     -7935.1908      0.61640401     225.7303       254.29788      309.34533      306.84143      309.06294      40530.374      25249.808      76           
    298000  -7823.8906      109.54731     -7933.4379      0.61640401     217.36211      256.7724       292.8985       300.45344      304.29001      40336.75       25129.183      77           
    299000  -7826.1169      108.09077     -7934.2077      0.61640401     214.47206      302.18159      288.54974      292.80993      302.88903      40611.573      25300.393      81           
    300000  -7823.0117      111.79135     -7934.803       0.61640401     221.81469      279.23599      299.12579      307.83177      299.05181      40759.99       25392.854      85           
    301000  -7825.1442      110.05421     -7935.1984      0.61640401     218.36789      255.88516      300.80359      293.90509      300.47124      40267.916      25086.3        86           
    302000  -7824.4049      109.97424     -7934.3791      0.61640401     218.20922      272.16348      297.52064      297.54172      298.03498      40606.92       25297.495      93           
    303000  -7829.0921      108.36152     -7937.4536      0.61640401     215.00929      265.80204      294.21065      287.92845      309.6352       40710.043      25361.738      82           
    304000  -7826.6369      109.74182     -7936.3787      0.61640401     217.74805      262.10025      302.33097      286.97783      308.25549      40629.699      25311.686      84           
    305000  -7823.9465      111.30691     -7935.2534      0.61640401     220.85347      337.48087      305.95395      287.31661      307.10209      40587.84       25285.607      91           
    306000  -7825.0747      111.88029     -7936.955       0.61640401     221.99118      291.55679      299.85386      303.68436      311.87113      40616.186      25303.267      92           
    307000  -7826.6623      110.31974     -7936.9821      0.61640401     218.89476      311.33196      288.22241      308.82547      304.75041      40617.31       25303.967      100          
    308000  -7827.7387      110.17161     -7937.9103      0.61640401     218.60084      317.39015      297.03597      293.95688      306.37679      40424.548      25183.879      86           
    309000  -7826.074       109.80192     -7935.8759      0.61640401     217.8673       301.2851       294.6202       296.89588      302.64274      40543.722      25258.123      88           
    310000  -7824.0808      113.567       -7937.6478      0.61640401     225.33792      289.41806      299.4057       319.61323      300.49674      40509.807      25236.994      84           
    311000  -7825.0996      110.49231     -7935.5919      0.61640401     219.23716      300.74949      307.50647      284.09441      298.08616      40489.396      25224.279      87           
    312000  -7823.6283      112.61787     -7936.2462      0.61640401     223.45468      269.9206       299.66606      313.69824      300.95234      40492.919      25226.473      89           
    313000  -7823.0903      111.2315      -7934.3218      0.61640401     220.70386      269.31485      302.22961      300.20448      297.08187      40529.363      25249.177      82           
    314000  -7820.6806      111.66675     -7932.3474      0.61640401     221.56748      288.19933      305.00068      297.01004      300.14822      40881.917      25468.814      71           
    315000  -7822.7392      111.13151     -7933.8708      0.61640401     220.50545      260.49873      304.8854       294.08707      304.454        40485.397      25221.787      72           
    316000  -7816.0496      115.47117     -7931.5208      0.61640401     229.11614      308.11545      312.15247      312.23634      306.25918      40522.691      25245.021      77           
    317000  -7824.8821      112.11129     -7936.9934      0.61640401     222.44953      325.20197      296.50645      309.51994      303.38663      40487.356      25223.008      79           
    318000  -7820.3412      116.10114     -7936.4423      0.61640401     230.36612      307.84812      310.71079      318.12074      310.63217      40686.671      25347.178      74           
    319000  -7822.7407      111.70704     -7934.4477      0.61640401     221.64742      277.33089      305.45477      293.96243      315.24635      40363.191      25145.655      75           
    320000  -7829.365       107.06229     -7936.4273      0.61640401     212.43137      264.96166      284.32263      291.60986      313.01234      40564.948      25271.347      72           
    321000  -7825.871       111.24598     -7937.117       0.61640401     220.73259      300.52339      300.00406      297.44986      312.7126       40693.459      25351.407      72           
    322000  -7822.7201      111.92643     -7934.6465      0.61640401     222.08273      256.58286      297.11729      308.40897      319.08762      40403.432      25170.725      71           
    323000  -7824.8984      111.46395     -7936.3624      0.61640401     221.16509      258.27283      303.97515      296.60124      312.30895      40526.208      25247.212      80           
    324000  -7823.8552      110.41044     -7934.2656      0.61640401     219.07473      304.33075      290.94752      305.29277      309.03648      40619.419      25305.281      67           
    325000  -7822.9757      111.54005     -7934.5158      0.61640401     221.31608      307.72341      298.63237      301.181        312.85734      40680.339      25343.233      70           
    326000  -7823.5248      114.62349     -7938.1483      0.61640401     227.43418      278.52253      309.65467      308.94145      316.99909      40240.273      25069.079      69           
    327000  -7824.4717      111.03599     -7935.5076      0.61640401     220.31594      222.70336      297.05168      302.47593      324.83711      40613.105      25301.347      70           
    328000  -7820.3989      113.04756     -7933.4465      0.61640401     224.30726      230.43277      304.27284      306.33112      325.93487      40445.786      25197.11       72           
    329000  -7822.4419      111.66544     -7934.1074      0.61640401     221.56487      303.66957      296.2714       303.95349      320.19554      40668.634      25335.941      65           
    330000  -7821.6388      113.0262      -7934.665       0.61640401     224.26486      273.19702      307.5149       300.3661       315.8267       40641.894      25319.283      59           
    331000  -7821.8697      112.07018     -7933.9399      0.61640401     222.36795      262.06075      300.27882      305.75069      311.61886      40657.015      25328.703      63           
    332000  -7819.9717      114.01675     -7933.9884      0.61640401     226.2303       257.50348      309.92463      305.49294      314.89139      40644.282      25320.77       62           
    333000  -7821.8831      113.66547     -7935.5486      0.61640401     225.5333       298.55287      311.22284      296.46408      323.07904      40410.53       25175.146      62           
    334000  -7821.647       112.15433     -7933.8013      0.61640401     222.53491      312.63376      298.70846      302.5631       324.15559      40693.256      25351.28       65           
    335000  -7824.1604      110.78724     -7934.9476      0.61640401     219.82236      276.87852      298.23091      294.46202      327.80678      40622.494      25307.196      68           
    336000  -7823.0456      112.21697     -7935.2626      0.61640401     222.65921      282.43883      303.25034      298.01413      324.60477      40678.321      25341.976      63           
    337000  -7821.645       113.02796     -7934.6729      0.61640401     224.26836      299.21406      293.81813      318.32955      319.44037      40283.945      25096.286      64           
    338000  -7827.1556      108.77042     -7935.926       0.61640401     215.82062      307.90787      291.3678       289.57159      319.27526      40653.158      25326.3        65           
    339000  -7823.5107      112.72209     -7936.2328      0.61640401     223.66147      408.55052      306.78085      288.94849      321.03033      40418.988      25180.416      73           
    340000  -7820.0557      114.26177     -7934.3175      0.61640401     226.71647      317.01289      311.1186       298.87884      328.18839      40714.385      25364.443      76           
    341000  -7819.2957      115.38047     -7934.6762      0.61640401     228.93619      302.14625      311.04539      308.66676      327.20387      40583.442      25282.868      75           
    342000  -7821.729       115.07645     -7936.8054      0.61640401     228.33295      251.79753      313.00567      304.51144      335.68799      40310.622      25112.905      68           
    343000  -7824.6711      109.34532     -7934.0164      0.61640401     216.96132      274.61407      297.82002      281.52146      339.46133      40658.787      25329.806      67           
    344000  -7824.2561      114.07032     -7938.3264      0.61640401     226.33659      325.54333      308.29736      299.84017      332.82125      40490.104      25224.72       74           
    345000  -7822.7716      111.98814     -7934.7598      0.61640401     222.20518      327.65723      295.23933      302.5886       336.1117       40639.021      25317.493      75           
    346000  -7816.6048      115.83677     -7932.4416      0.61640401     229.84156      365.07738      312.31852      304.5917       332.23519      40495.281      25227.945      73           
    347000  -7824.1854      110.75887     -7934.9443      0.61640401     219.76608      289.65476      300.53349      290.24304      327.23523      40604.551      25296.018      75           
    348000  -7819.0166      115.28271     -7934.2993      0.61640401     228.7422       317.07784      309.05666      307.55689      335.8894       40590.912      25287.522      70           
    349000  -7823.8979      110.93297     -7934.8309      0.61640401     220.11151      322.16959      292.53523      299.54373      333.58384      40430.292      25187.458      66           
    350000  -7823.2819      112.11908     -7935.4009      0.61640401     222.46497      311.01991      294.25022      305.40587      338.29835      40680.131      25343.104      73           
    351000  -7820.7799      114.60512     -7935.3851      0.61640401     227.39773      274.83746      313.69057      295.31855      349.32357      40617.042      25303.8        69           
    352000  -7823.657       112.86426     -7936.5212      0.61640401     223.94356      269.48991      300.34469      302.15845      350.44428      40652.168      25325.683      73           
    353000  -7823.7593      113.35869     -7937.118       0.61640401     224.9246       272.38444      305.07647      297.58852      353.48035      40501.832      25232.026      66           
    354000  -7823.441       111.92633     -7935.3673      0.61640401     222.08253      300.44684      299.11348      293.85683      353.9673       40748.487      25385.689      66           
    355000  -7822.2627      112.05714     -7934.3199      0.61640401     222.34208      267.56499      295.4305       303.39359      351.59471      40426.594      25185.154      76           
    356000  -7824.4695      112.15543     -7936.625       0.61640401     222.53711      288.07875      302.33984      293.80323      346.29268      40468.977      25211.558      74           
    357000  -7824.9653      110.02816     -7934.9934      0.61640401     218.31621      256.96289      289.24837      299.56803      346.55103      40643.491      25320.277      76           
    358000  -7827.633       108.60504     -7936.238       0.61640401     215.49248      272.00582      286.93057      291.80761      345.09067      40527.818      25248.215      79           
    359000  -7823.9628      112.53255     -7936.4954      0.61640401     223.28537      293.58157      300.45661      300.05161      343.96636      40587.381      25285.322      86           
    360000  -7823.9004      112.72004     -7936.6204      0.61640401     223.65739      299.68679      302.43585      297.26714      347.89436      40338.622      25130.349      85           
    361000  -7820.0877      114.81605     -7934.9038      0.61640401     227.81626      306.4293       303.82408      311.79526      343.26243      40533.005      25251.446      94           
    362000  -7822.8626      111.93038     -7934.793       0.61640401     222.09056      283.58728      296.28152      302.87729      343.9006       40473.745      25214.528      95           
    363000  -7827.0164      112.2257      -7939.2421      0.61640401     222.67652      326.59937      296.86841      300.18624      344.70482      40758.053      25391.648      96           
    364000  -7824.9878      111.05582     -7936.0436      0.61640401     220.35527      300.75302      294.77269      295.75905      349.11919      40690.066      25349.293      91           
    365000  -7823.2107      113.9933      -7937.204       0.61640401     226.18377      317.12012      296.76416      315.54527      339.9323       40381.297      25156.934      91           
    366000  -7821.15        112.39175     -7933.5418      0.61640401     223.00601      290.63462      302.82323      298.00356      334.81381      40517.881      25242.024      91           
    367000  -7825.4877      112.56572     -7938.0534      0.61640401     223.3512       290.75798      309.16883      290.87862      330.98384      40480.878      25218.972      94           
    368000  -7829.0851      106.9925      -7936.0776      0.61640401     212.2929       290.33148      287.45006      280.18007      333.20991      40556.93       25266.351      84           
    369000  -7825.8573      110.31976     -7936.177       0.61640401     218.89479      297.57124      289.24154      302.56         330.62469      40414.214      25177.441      82           
    370000  -7823.4752      113.13584     -7936.611       0.61640401     224.48241      285.35074      304.56764      301.16195      331.67426      40525.453      25246.741      67           
    371000  -7824.1315      109.18345     -7933.315       0.61640401     216.64014      276.75862      289.0092       294.9142       331.98042      40657.406      25328.946      67           
    372000  -7824.1375      113.16784     -7937.3054      0.61640401     224.54592      294.61757      306.66727      298.17951      329.11503      40553.121      25263.979      58           
    373000  -7822.5052      111.17665     -7933.6818      0.61640401     220.59502      372.93174      295.20059      295.8883       326.0861       40641.485      25319.028      68           
    374000  -7821.5851      111.56523     -7933.1503      0.61640401     221.36605      287.22363      302.51907      292.35332      329.77922      40530.794      25250.069      55           
    375000  -7819.942       113.17516     -7933.1171      0.61640401     224.56043      301.36745      308.22482      295.9561       327.79493      40698.263      25354.4        65           
    376000  -7824.1616      111.40758     -7935.5692      0.61640401     221.05323      276.84617      301.40153      296.66647      317.90329      40405.22       25171.838      63           
    377000  -7823.4134      112.58509     -7935.9985      0.61640401     223.38964      258.87708      304.91493      301.0998       319.37738      40671.522      25337.74       65           
    378000  -7822.8236      110.10646     -7932.93        0.61640401     218.47157      284.18878      295.88938      293.80968      321.38762      40664.234      25333.2        70           
    379000  -7824.262       111.36262     -7935.6246      0.61640401     220.96403      308.55425      298.4736       296.50317      327.34128      40578.09       25279.534      60           
    380000  -7825.8043      109.8981      -7935.7024      0.61640401     218.05815      253.67316      293.06868      295.28075      335.78099      40490.228      25224.797      71           
    381000  -7828.9462      110.24882     -7939.195       0.61640401     218.75405      298.77644      303.12458      280.93266      332.23788      40694.442      25352.019      79           
    382000  -7821.2781      114.53246     -7935.8106      0.61640401     227.25358      308.5557       308.20968      306.53117      325.11455      40836.374      25440.441      74           
    383000  -7822.2463      111.8113      -7934.0576      0.61640401     221.8543       284.91341      305.68651      292.15653      322.76132      40269.141      25087.063      78           
    384000  -7825.5238      110.57084     -7936.0946      0.61640401     219.39298      265.87536      292.47542      303.87117      320.18337      40792.145      25412.887      67           
    385000  -7824.2673      111.03971     -7935.307       0.61640401     220.32332      329.544        297.92941      294.91451      321.20901      40406.454      25172.607      67           
    386000  -7821.0056      113.30237     -7934.308       0.61640401     224.81284      277.49544      304.44997      305.56488      321.11465      40808.616      25423.148      65           
    387000  -7823.3018      110.67109     -7933.9729      0.61640401     219.59189      296.24392      296.1071       297.05973      321.05175      40378.683      25155.306      69           
    388000  -7821.9896      112.34639     -7934.336       0.61640401     222.91599      289.82673      297.50598      306.30005      329.33913      40668.868      25336.087      76           
    389000  -7823.3494      110.83048     -7934.1798      0.61640401     219.90816      279.5551       302.79806      288.0705       327.46577      40609.373      25299.023      70           
    390000  -7823.0967      112.78774     -7935.8844      0.61640401     223.79172      278.93297      303.96423      301.69039      324.2354       40364.42       25146.42       67           
    391000  -7822.3057      111.49644     -7933.8022      0.61640401     221.22954      218.57264      299.19624      303.1434       321.62502      40881.13       25468.323      63           
    392000  -7824.0823      113.512       -7937.5943      0.61640401     225.22879      257.94994      307.40157      306.79412      311.26886      40194.617      25040.636      72           
    393000  -7821.9802      111.02851     -7933.0087      0.61640401     220.30109      339.45592      293.9661       303.66007      306.58678      40658.276      25329.488      66           
    394000  -7824.0985      110.69818     -7934.7967      0.61640401     219.64566      315.12673      299.63384      294.54501      305.68936      40326.689      25122.915      69           
    395000  -7821.3355      113.62229     -7934.9577      0.61640401     225.44762      294.16832      306.15191      308.40617      305.27646      40716.414      25365.707      69           
    396000  -7823.8807      112.67978     -7936.5605      0.61640401     223.57752      301.71328      298.64673      311.9934       305.01545      40546.278      25259.715      67           
    397000  -7827.5888      108.14259     -7935.7314      0.61640401     214.57489      297.41908      288.08999      295.08475      299.38776      40681.467      25343.936      74           
    398000  -7824.8126      111.62313     -7936.4358      0.61640401     221.48093      310.6472       300.79451      299.99277      306.08585      40517.671      25241.893      73           
    399000  -7822.7159      112.67071     -7935.3866      0.61640401     223.55951      313.74533      304.2459       302.19403      307.66583      40548.784      25261.277      68           
    400000  -7823.1425      111.23509     -7934.3776      0.61640401     220.71097      321.57042      304.74125      289.65391      309.14135      40544.267      25258.462      79           
    401000  -7823.2481      111.15442     -7934.4025      0.61640401     220.55092      316.55408      308.28257      283.79415      310.66988      40294.083      25102.602      83           
    402000  -7824.5324      112.49741     -7937.0298      0.61640401     223.21565      319.53146      297.81451      310.05343      306.90962      40698.697      25354.67       81           
    403000  -7824.1731      108.76736     -7932.9405      0.61640401     215.81455      289.03643      297.49511      285.36927      304.2326       40470.897      25212.754      77           
    404000  -7828.5325      109.0211      -7937.5536      0.61640401     216.31801      297.62626      294.30066      290.78608      306.59817      40453.815      25202.112      73           
    405000  -7819.432       111.83756     -7931.2695      0.61640401     221.90639      277.91727      301.2335       303.39578      305.45675      40528.925      25248.904      74           
    406000  -7820.3272      110.59524     -7930.9225      0.61640401     219.44141      299.60954      295.37495      300.88585      306.64995      40577          25278.855      72           
    407000  -7822.7922      111.14953     -7933.9417      0.61640401     220.5412       298.11213      297.468        300.98845      310.70182      40244.282      25071.576      67           
    408000  -7821.258       111.70137     -7932.9593      0.61640401     221.63616      288.55112      300.49626      301.69274      309.8349       40613.809      25301.786      74           
    409000  -7822.1573      114.23372     -7936.391       0.61640401     226.66082      333.63918      310.02491      300.65545      321.86087      40565.641      25271.778      72           
    410000  -7821.4089      111.01693     -7932.4259      0.61640401     220.2781       311.95355      295.95474      297.95648      324.9206       40577.319      25279.053      62           
    411000  -7821.3994      110.79986     -7932.1992      0.61640401     219.84739      298.91295      293.58161      300.30178      326.49058      40590.718      25287.401      73           
    412000  -7820.9578      110.81498     -7931.7727      0.61640401     219.8774       310.92058      302.84153      286.11356      325.66203      40412.683      25176.488      63           
    413000  -7823.7455      108.9913      -7932.7368      0.61640401     216.25889      299.05657      288.8748       294.9491       320.9164       40795.125      25414.743      70           
    414000  -7821.4786      112.67966     -7934.1583      0.61640401     223.57727      335.41545      306.92171      295.06277      315.00363      40371.166      25150.623      69           
    415000  -7821.113       113.73805     -7934.8511      0.61640401     225.67731      340.87258      299.86248      313.35358      314.33333      40650.741      25324.794      66           
    416000  -7822.3798      110.77373     -7933.1535      0.61640401     219.79556      337.90153      290.00021      306.80089      310.94599      40336.684      25129.141      65           
    417000  -7824.0343      111.07379     -7935.1081      0.61640401     220.39093      311.66989      298.11891      298.91263      309.80725      40763.927      25395.307      67           
    418000  -7827.8478      111.54046     -7939.3882      0.61640401     221.31688      248.5341       298.75395      304.4434       317.2953       40598.748      25292.403      80           
    419000  -7826.724       108.05931     -7934.7833      0.61640401     214.40965      276.99504      289.21679      289.41707      320.32095      40386.635      25160.26       80           
    420000  -7822.8677      112.76692     -7935.6346      0.61640401     223.7504       300.49475      305.40377      300.57044      314.35704      40654.802      25327.324      80           
    421000  -7823.894       111.52293     -7935.4169      0.61640401     221.28212      280.86049      305.70498      293.28199      309.76203      40386.592      25160.233      77           
    422000  -7821.1189      111.25658     -7932.3754      0.61640401     220.75361      266.28644      303.50468      296.32487      307.83959      40589.228      25286.472      84           
    423000  -7819.8482      112.46325     -7932.3115      0.61640401     223.14788      271.69859      299.74283      310.14679      309.03464      40422.765      25182.768      82           
    424000  -7826.61        110.07304     -7936.6831      0.61640401     218.40526      301.08067      290.35241      303.40685      310.26583      40781.038      25405.967      74           
    425000  -7827.6614      109.29312     -7936.9545      0.61640401     216.85776      304.62869      292.14538      294.61302      310.34968      40418.911      25180.368      83           
    426000  -7824.1725      112.76821     -7936.9407      0.61640401     223.75297      304.74325      291.37804      321.17767      313.73002      40370.277      25150.069      80           
    427000  -7824.5349      112.82118     -7937.3561      0.61640401     223.85806      291.85942      300.2111       308.72237      317.09701      40659.68       25330.363      83           
    428000  -7826.6388      110.64097     -7937.2798      0.61640401     219.53214      248.84427      303.16255      290.19547      319.96986      40541.02       25256.44       74           
    429000  -7821.6612      111.85594     -7933.5171      0.61640401     221.94286      301.30627      298.95494      304.18995      309.9841       40744.384      25383.132      77           
    430000  -7822.5295      112.17161     -7934.7011      0.61640401     222.56921      242.99374      301.62696      307.97308      304.91557      40415.035      25177.953      74           
    431000  -7825.9376      111.01281     -7936.9504      0.61640401     220.26993      252.19028      302.36959      298.12788      302.21557      40635.737      25315.447      74           
    432000  -7821.985       113.48377     -7935.4688      0.61640401     225.17278      278.18482      305.87039      308.49018      307.97859      40389.313      25161.928      80           
    433000  -7826.4638      110.96097     -7937.4247      0.61640401     220.16708      271.02922      295.42182      305.02069      308.94566      40510.433      25237.384      75           
    434000  -7823.7419      109.75119     -7933.4931      0.61640401     217.76665      214.90813      291.61796      303.63205      312.61123      40693.961      25351.719      62           
    435000  -7821.5282      111.76157     -7933.2898      0.61640401     221.75562      302.4872       294.13396      310.31447      310.53539      40461.568      25206.942      70           
    436000  -7824.7974      108.04076     -7932.8382      0.61640401     214.37285      335.02752      285.522        293.52406      307.83786      40571.99       25275.734      71           
    437000  -7824.7039      109.86193     -7934.5659      0.61640401     217.98638      371.49319      290.99111      297.20863      304.11344      40406.671      25172.742      76           
    438000  -7822.1752      112.58346     -7934.7586      0.61640401     223.38639      290.69327      307.68143      298.90114      303.98003      40694.03       25351.762      72           
    439000  -7819.8897      114.2466      -7934.1363      0.61640401     226.68637      272.94607      312.27571      306.55281      301.41198      40583.376      25282.827      75           
    440000  -7823.2344      110.54254     -7933.7769      0.61640401     219.33683      304.36715      302.28121      291.5001       300.0294       40557.767      25266.872      85           
    441000  -7821.2515      111.33184     -7932.5834      0.61640401     220.90295      319.03865      303.86214      293.50943      301.66996      40586.783      25284.949      86           
    442000  -7824.3571      110.66524     -7935.0223      0.61640401     219.5803       337.79668      295.89049      298.01432      306.26266      40361.337      25144.5        75           
    443000  -7824.7512      110.11405     -7934.8653      0.61640401     218.48663      317.83948      299.43632      290.00607      306.16829      40835.431      25439.853      80           
    444000  -7825.5654      110.23714     -7935.8026      0.61640401     218.73086      290.18913      301.95803      288.56059      309.13699      40325.57       25122.217      76           
    445000  -7820.7467      112.28167     -7933.0284      0.61640401     222.78758      276.37534      307.3831       296.65775      310.09826      40683.966      25345.493      74           
    446000  -7822.6291      114.02767     -7936.6568      0.61640401     226.25198      288.25818      304.77209      312.3712       311.79829      40423.567      25183.268      72           
    447000  -7824.0667      111.08357     -7935.1503      0.61640401     220.41034      261.3026       301.67279      296.12712      313.76474      40698.832      25354.754      71           
    448000  -7824.5701      112.41925     -7936.9894      0.61640401     223.06057      297.40725      299.08717      307.26803      314.88854      40384.235      25158.765      69           
    449000  -7824.0941      110.9374      -7935.0315      0.61640401     220.1203       276.46972      299.69202      296.03497      317.1047       40640.704      25318.541      66           
    450000  -7819.8169      113.39049     -7933.2074      0.61640401     224.9877       300.96903      307.34593      301.97095      315.23125      40703.806      25357.853      63           
    451000  -7821.4415      113.91691     -7935.3584      0.61640401     226.03221      219.75888      308.85676      310.26158      310.53036      40403.109      25170.523      69           
    452000  -7823.5341      111.18483     -7934.7189      0.61640401     220.61126      272.62246      299.76703      300.13062      307.86398      40799.697      25417.592      63           
    453000  -7819.5557      113.703       -7933.2587      0.61640401     225.60777      295.80051      304.21593      312.44678      302.59888      40280.554      25094.173      73           
    454000  -7824.0256      110.77308     -7934.7987      0.61640401     219.79427      363.34452      293.38255      300.57899      306.33721      40719.31       25367.511      77           
    455000  -7827.6408      110.92058     -7938.5614      0.61640401     220.08693      303.83307      298.78388      298.22353      305.75017      40362.933      25145.494      78           
    456000  -7824.189       110.43454     -7934.6236      0.61640401     219.12253      271.13717      297.10083      298.09872      310.187        40735.012      25377.294      67           
    457000  -7821.4573      113.40484     -7934.8622      0.61640401     225.01617      307.01164      308.51305      301.20092      310.39615      40451.394      25200.604      74           
    458000  -7817.9789      116.71812     -7934.697       0.61640401     231.59033      354.70202      312.43148      316.73452      310.41089      40593.642      25289.223      79           
    459000  -7821.1678      114.04609     -7935.2139      0.61640401     226.28852      338.87479      304.64063      311.05209      303.97283      40600.116      25293.255      73           
    460000  -7821.4318      111.92482     -7933.3566      0.61640401     222.07954      309.49613      304.44072      296.64703      307.19245      40533.323      25251.645      79           
    461000  -7823.8128      112.17013     -7935.9829      0.61640401     222.56627      323.34854      310.12393      290.78517      300.28167      40911.924      25487.507      73           
    462000  -7825.5715      111.08753     -7936.659       0.61640401     220.41818      266.85112      310.3057       286.74873      299.79738      40243.794      25071.272      81           
    463000  -7821.9652      110.32309     -7932.2883      0.61640401     218.9014       295.09084      297.66611      297.7668       298.46007      40547.177      25260.275      82           
    464000  -7822.7105      113.67497     -7936.3855      0.61640401     225.55214      332.37191      305.70871      307.78931      301.4075       40276.016      25091.346      72           
    465000  -7825.1716      109.19413     -7934.3658      0.61640401     216.66133      274.64334      292.2501       298.15791      301.08295      40961.469      25518.373      77           
    466000  -7828.1367      108.2193      -7936.356       0.61640401     214.7271       319.16599      292.17168      286.76643      304.18744      40125.115      24997.337      83           
    467000  -7825.2871      111.58392     -7936.871       0.61640401     221.40313      325.22352      299.95376      301.30215      299.64747      40701.959      25356.702      79           
    468000  -7822.9987      113.77374     -7936.7725      0.61640401     225.74814      292.0301       302.86094      315.69445      300.76041      40609.749      25299.257      74           
    469000  -7823.7876      112.2042      -7935.9918      0.61640401     222.63387      346.65867      306.5824       295.57775      293.91025      40492.053      25225.934      86           
    470000  -7825.5         110.56284     -7936.0628      0.61640401     219.37712      311.80911      302.47155      293.38083      288.7398       40682.18       25344.38       80           
    471000  -7827.7714      107.90717     -7935.6786      0.61640401     214.10776      317.19902      289.15746      293.75219      283.77669      40422.951      25182.884      84           
    472000  -7824.7614      108.35001     -7933.1114      0.61640401     214.98645      329.27908      292.56824      290.71816      283.87348      40861.458      25456.068      92           
    473000  -7822.4916      111.10191     -7933.5935      0.61640401     220.44673      320.393        311.12553      285.49676      283.3113       40300.607      25106.666      75           
    474000  -7819.9233      112.13517     -7932.0585      0.61640401     222.4969       301.27759      301.36787      308.46276      286.00956      40755.419      25390.007      71           
    475000  -7824.2344      109.5183      -7933.7527      0.61640401     217.30454      321.18632      293.45517      298.3759       288.59494      40178.797      25030.78       75           
    476000  -7822.0597      111.94854     -7934.0082      0.61640401     222.1266       291.85466      310.03128      293.80126      290.61875      40772.408      25400.591      73           
    477000  -7824.5454      110.98362     -7935.529       0.61640401     220.21201      307.17089      302.45138      297.61512      286.41773      40617.177      25303.884      71           
    478000  -7820.5503      110.87722     -7931.4275      0.61640401     220.00089      320.35851      296.34038      304.46826      288.87915      40454.237      25202.375      69           
    479000  -7823.6572      112.46283     -7936.12        0.61640401     223.14704      280.27163      310.25231      299.97507      282.5626       40598.12       25292.012      69           
    480000  -7821.7809      113.01259     -7934.7935      0.61640401     224.23786      278.59191      313.73106      299.0162       283.83023      40447.046      25197.895      79           
    481000  -7818.9352      113.61775     -7932.5529      0.61640401     225.43861      334.21005      308.32467      307.68653      283.27299      40851.703      25449.991      71           
    482000  -7822.632       110.99112     -7933.6231      0.61640401     220.22691      335.58026      293.90121      307.87856      289.58832      40159.443      25018.723      67           
    483000  -7826.0254      111.14435     -7937.1698      0.61640401     220.53094      333.6683       305.07857      291.24956      295.68783      40896.211      25477.718      63           
    484000  -7826.0324      110.93631     -7936.9687      0.61640401     220.11814      341.51342      293.80077      305.73903      295.5441       40360.164      25143.769      68           
    485000  -7824.7556      109.70396     -7934.4596      0.61640401     217.67294      316.74801      291.07562      302.87947      292.10951      40806.817      25422.027      71           
    486000  -7824.9076      110.00027     -7934.9078      0.61640401     218.26087      321.0059       292.75964      302.67067      292.09464      40487.697      25223.22       59           
    487000  -7823.7311      110.77667     -7934.5078      0.61640401     219.80139      274.38999      295.32692      308.34465      288.56072      40435.364      25190.617      65           
    488000  -7820.9695      109.78773     -7930.7573      0.61640401     217.83916      293.34793      294.56676      301.71173      284.97039      40554.268      25264.693      63           
    489000  -7821.9515      112.01343     -7933.9649      0.61640401     222.25534      329.36378      305.60776      298.5757       288.47516      40466.656      25210.112      77           
    490000  -7820.6149      110.49978     -7931.1147      0.61640401     219.25199      315.63213      296.87057      301.68821      286.97051      40731.766      25375.272      67           
    491000  -7821.2721      113.19919     -7934.4713      0.61640401     224.60812      305.64022      306.24717      306.71326      295.26564      40273.167      25089.571      69           
    492000  -7825.5472      111.79185     -7937.3391      0.61640401     221.8157       328.74714      305.24399      295.55201      296.83823      40798.606      25416.912      75           
    493000  -7826.0427      111.01057     -7937.0533      0.61640401     220.26549      331.75708      289.38872      311.78125      302.82922      40465.18       25209.193      68           
    494000  -7824.7432      112.09439     -7936.8376      0.61640401     222.41599      302.31054      295.20548      313.17755      302.65373      40522.651      25244.996      82           
    495000  -7825.6397      109.07334     -7934.7131      0.61640401     216.42167      317.15095      297.52874      283.88803      311.54606      40476.792      25216.427      76           
    496000  -7821.7911      112.38869     -7934.1798      0.61640401     222.99993      291.2695       304.28397      301.36222      308.28042      40546.364      25259.769      69           
    497000  -7821.6428      113.40587     -7935.0487      0.61640401     225.01822      309.25331      306.31491      305.69192      304.50184      40706.05       25359.251      76           
    498000  -7822.5401      111.84825     -7934.3883      0.61640401     221.92761      284.42457      313.63188      286.0147       300.10094      40307.219      25110.785      78           
    499000  -7824.3443      111.53182     -7935.8761      0.61640401     221.29975      328.02468      298.20841      305.67156      291.07108      40928.203      25497.648      67           
    500000  -7826.7564      107.74023     -7934.4967      0.61640401     213.77652      275.9844       294.70706      285.64976      291.41454      40287.724      25098.64       69           
    501000  -7825.9338      109.05875     -7934.9925      0.61640401     216.39272      290.12115      294.11054      293.81797      298.38398      40653.14       25326.289      68           
    502000  -7823.0974      111.72375     -7934.8211      0.61640401     221.68057      302.62691      305.02639      296.4794       300.08009      40341.579      25132.191      76           
    503000  -7823.0441      113.61127     -7936.6554      0.61640401     225.42575      348.42395      305.33846      307.30534      298.98033      40625.48       25309.057      72           
    504000  -7826.399       109.45636     -7935.8554      0.61640401     217.18165      316.06807      291.73805      296.74381      305.85508      40488.001      25223.41       71           
    505000  -7822.7694      111.44299     -7934.2124      0.61640401     221.12349      266.87913      302.27885      300.92769      300.37548      40661.95       25331.777      75           
    506000  -7823.7199      109.88745     -7933.6074      0.61640401     218.03701      274.04322      296.63036      297.35222      299.18823      40647.197      25322.586      75           
    507000  -7822.5361      110.75768     -7933.2938      0.61640401     219.7637       339.38857      297.06045      297.95772      300.70241      40376.758      25154.107      81           
    508000  -7825.1945      109.39542     -7934.5899      0.61640401     217.06072      269.00938      295.73658      294.21665      303.72256      40664.815      25333.562      74           
    509000  -7820.5699      113.07312     -7933.643       0.61640401     224.35798      308.79994      308.129        299.69372      308.0608       40324.944      25121.828      81           
    510000  -7822.3117      110.76689     -7933.0786      0.61640401     219.78199      298.71368      296.8734       298.5061       313.45402      40655.636      25327.844      75           
    511000  -7824.7154      113.02944     -7937.7448      0.61640401     224.27129      350.68758      306.32918      299.63476      305.24928      40412.501      25176.374      76           
    512000  -7822.9635      113.20009     -7936.1636      0.61640401     224.60991      333.37135      304.8965       305.07988      301.33693      40639.283      25317.656      81           
    513000  -7823.6538      110.35146     -7934.0052      0.61640401     218.95769      309.90898      298.75625      294.57143      301.33584      40608.262      25298.33       79           
    514000  -7827.092       111.73928     -7938.8313      0.61640401     221.71139      282.41019      294.55337      314.38941      296.16966      40597.056      25291.349      69           
    515000  -7825.0749      109.60323     -7934.6782      0.61640401     217.47307      270.69189      293.35963      300.83995      296.76291      40512.019      25238.372      74           
    516000  -7830.5736      108.93352     -7939.5071      0.61640401     216.14423      304.81422      283.22341      306.34013      305.47051      40567.581      25272.987      76           
    517000  -7827.1529      109.94398     -7937.0968      0.61640401     218.14917      255.15318      294.49253      299.67837      309.43663      40456.128      25203.553      71           
    518000  -7827.0581      109.5102      -7936.5682      0.61640401     217.28847      279.25895      302.16085      281.82215      316.00346      40625.347      25308.974      72           
    519000  -7824.7876      111.0205      -7935.8081      0.61640401     220.28519      305.15492      295.71793      300.69017      316.66134      40329.57       25124.71       73           
    520000  -7824.8425      109.54696     -7934.3895      0.61640401     217.36142      260.22886      293.71062      295.56152      316.40506      40405.482      25172.001      68           
    521000  -7826.2         111.52163     -7937.7217      0.61640401     221.27952      263.20655      304.79539      296.53052      306.26771      40849.688      25448.735      72           
    522000  -7824.2123      111.50274     -7935.715       0.61640401     221.24204      271.38345      299.66939      304.75511      300.9136       40485.225      25221.68       74           
    523000  -7823.807       111.46032     -7935.2673      0.61640401     221.15789      304.27566      304.64204      296.86382      292.4101       40665.881      25334.226      65           
    524000  -7822.8329      110.43289     -7933.2658      0.61640401     219.11926      322.58911      298.87208      295.71844      295.38873      40449.384      25199.352      68           
    525000  -7822.6299      112.03595     -7934.6658      0.61640401     222.30003      263.74552      294.0531       317.52502      299.69933      40736.388      25378.151      62           
    526000  -7824.4216      108.66944     -7933.0911      0.61640401     215.62025      375.52285      288.91724      294.14116      298.36         40342.58       25132.815      54           
    527000  -7824.4727      109.44777     -7933.9205      0.61640401     217.16461      300.27095      290.05138      299.95983      307.05052      40775.833      25402.724      64           
    528000  -7822.5965      114.58173     -7937.1782      0.61640401     227.35132      349.60959      300.7704       319.15639      308.64609      40459.765      25205.819      68           
    529000  -7823.7075      110.13965     -7933.8471      0.61640401     218.53741      317.81799      291.1246       304.02888      300.53802      40579.928      25280.679      70           
    530000  -7825.2502      111.25582     -7936.5061      0.61640401     220.75212      322.21829      296.80409      304.73032      295.1328       40639.631      25317.873      81           
    531000  -7823.196       111.22147     -7934.4175      0.61640401     220.68396      295.00991      299.29751      303.02533      294.59757      40373.264      25151.93       80           
    532000  -7824.8961      111.14514     -7936.0413      0.61640401     220.53249      296.05718      301.12378      299.36969      295.78009      40770.457      25399.376      76           
    533000  -7826.5594      110.74311     -7937.3025      0.61640401     219.73479      318.13291      297.77269      300.00595      294.30658      40585.523      25284.164      78           
    534000  -7821.7193      113.39776     -7935.1171      0.61640401     225.00211      289.18064      308.71382      305.63771      295.65934      40677.057      25341.188      80           
    535000  -7826.0463      109.03036     -7935.0767      0.61640401     216.33638      278.76098      298.33638      286.54667      306.59028      40425.038      25184.184      83           
    536000  -7824.9007      112.11753     -7937.0182      0.61640401     222.4619       291.36397      299.20549      306.80132      309.53584      40687.805      25347.884      85           
    537000  -7822.8093      114.63536     -7937.4447      0.61640401     227.45775      319.46729      309.67603      307.0508       313.39792      40499.885      25230.813      88           
    538000  -7823.0777      112.52917     -7935.6068      0.61640401     223.27867      275.76279      309.91803      294.59823      312.03304      40445.532      25196.952      81           
    539000  -7826.6958      111.35049     -7938.0463      0.61640401     220.93995      271.58956      301.43156      299.42505      308.66037      40799.945      25417.746      82           
    540000  -7823.511       110.96601     -7934.477       0.61640401     220.17708      264.4919       297.53342      302.06075      311.99431      40278.836      25093.103      80           
    541000  -7821.9829      111.55746     -7933.5404      0.61640401     221.35062      295.8742       301.74913      300.36798      300.66813      40856.045      25452.695      66           
    542000  -7828.6259      108.40231     -7937.0282      0.61640401     215.09023      308.77122      290.00977      292.89095      302.44981      40318.231      25117.646      60           
    543000  -7826.2627      110.888       -7937.1507      0.61640401     220.02229      282.5381       290.32128      311.54546      307.20176      40771.061      25399.752      66           
    544000  -7823.6087      114.18293     -7937.7916      0.61640401     226.56003      278.66231      308.64604      308.71382      310.17272      40374.209      25152.519      67           
    545000  -7821.5625      113.81199     -7935.3745      0.61640401     225.82403      297.84494      303.61641      312.02281      310.74383      40610.253      25299.57       71           
    546000  -7827.2513      109.85313     -7937.1044      0.61640401     217.96892      274.85368      288.97748      304.44187      313.89821      40560.281      25268.439      64           
    547000  -7822.8186      111.42466     -7934.2433      0.61640401     221.08712      281.06278      298.01134      304.2108       307.66808      40517.741      25241.937      71           
    548000  -7822.2358      111.55593     -7933.7918      0.61640401     221.34759      308.33714      303.35707      297.79468      298.09213      40833.039      25438.363      69           
    549000  -7826.9116      109.21565     -7936.1273      0.61640401     216.70404      300.03351      298.80435      287.71676      297.10406      40221.338      25057.282      62           
    550000  -7825.8551      108.35958     -7934.2146      0.61640401     215.00544      279.46539      298.45625      281.32826      304.50463      40781.623      25406.332      68           
    551000  -7823.3344      111.42747     -7934.7619      0.61640401     221.0927       312.96153      300.08642      300.34834      302.23516      40256.021      25078.89       70           
    552000  -7821.7625      110.94296     -7932.7054      0.61640401     220.13134      262.80096      302.81096      293.48568      313.29562      40680.182      25343.135      73           
    553000  -7828.2839      109.53655     -7937.8204      0.61640401     217.34075      278.06907      294.01689      294.55275      314.13948      40460.982      25206.577      71           
    554000  -7823.0031      112.9862      -7935.9893      0.61640401     224.18551      282.78304      309.13628      297.77038      314.43226      40720.386      25368.182      70           
    555000  -7827.6367      108.56859     -7936.2052      0.61640401     215.42016      294.54256      288.91938      294.08175      312.60457      40490.653      25225.062      74           
    556000  -7825.8474      110.68273     -7936.5301      0.61640401     219.615        321.16539      300.65525      290.06925      315.71489      40506.583      25234.986      76           
    557000  -7819.5537      112.80445     -7932.3581      0.61640401     223.82487      262.74744      304.29464      305.56017      311.98117      40789.805      25411.429      72           
    558000  -7824.0035      111.14813     -7935.1516      0.61640401     220.53844      273.353        298.96901      299.86691      312.81428      40209.113      25049.667      67           
    559000  -7823.9267      112.36168     -7936.2884      0.61640401     222.94633      303.08325      304.55172      298.77207      312.99651      40844.134      25445.275      65           
    560000  -7827.3162      109.06071     -7936.3769      0.61640401     216.3966       310.03347      292.05216      292.0648       312.53067      40440.63       25193.898      69           
    561000  -7823.9663      112.43444     -7936.4007      0.61640401     223.09072      312.41409      298.28801      308.86462      309.4754       40681.077      25343.693      72           
    562000  -7822.199       113.1043      -7935.3033      0.61640401     224.41984      327.79878      302.69245      307.13878      306.19623      40289.928      25100.013      71           
    563000  -7823.3451      109.94033     -7933.2854      0.61640401     218.14193      329.87658      293.40006      297.45898      304.56617      40836.494      25440.515      66           
    564000  -7824.3538      111.18323     -7935.537       0.61640401     220.60808      268.80589      292.32246      313.51049      300.18817      40498.799      25230.136      73           
    565000  -7821.9725      111.97042     -7933.943       0.61640401     222.17001      273.7381       301.31681      304.62461      303.74777      40414.358      25177.531      61           
    566000  -7823.5192      112.22226     -7935.7415      0.61640401     222.6697       274.05383      303.37224      303.13726      304.91672      40902.815      25481.833      60           
    567000  -7818.5241      112.65667     -7931.1808      0.61640401     223.53167      310.93077      301.42839      306.6716       306.83319      40260.038      25081.392      65           
    568000  -7821.9576      112.65822     -7934.6158      0.61640401     223.53474      327.344        302.36659      302.88294      313.18313      40823.409      25432.364      57           
    569000  -7823.0262      111.31772     -7934.344       0.61640401     220.87493      360.71598      293.82706      304.68332      309.03124      40389.307      25161.924      58           
    570000  -7824.0167      110.83672     -7934.8534      0.61640401     219.92055      331.6765       297.55734      296.1233       312.1146       40914.741      25489.262      67           
    571000  -7822.0488      111.77947     -7933.8283      0.61640401     221.79113      304.05003      304.3897       296.75321      304.20206      40218.736      25055.661      74           
    572000  -7824.2411      112.77196     -7937.0131      0.61640401     223.76041      269.70478      305.54508      304.21596      306.66979      40720.302      25368.13       70           
    573000  -7822.3943      112.72395     -7935.1182      0.61640401     223.66516      269.3583       298.99377      312.15707      311.88958      40376.041      25153.66       66           
    574000  -7823.5039      111.6636      -7935.1675      0.61640401     221.56123      304.97287      300.22135      300.6051       309.74805      40685.909      25346.703      68           
    575000  -7824.5589      111.4688      -7936.0277      0.61640401     221.1747       271.25035      301.72541      301.17389      299.99974      40660.602      25330.937      56           
    576000  -7821.0334      111.44224     -7932.4756      0.61640401     221.12199      256.83953      305.47034      296.48579      299.47242      40242.744      25070.618      60           
    577000  -7821.324       113.27041     -7934.5944      0.61640401     224.74944      269.98005      307.6382       306.3589       300.36813      40825.026      25433.371      69           
    578000  -7819.5667      112.46576     -7932.0324      0.61640401     223.15285      313.65404      301.2339       306.8534       300.54767      40457.898      25204.656      68           
    579000  -7825.0757      110.53893     -7935.6146      0.61640401     219.32967      372.53002      297.73708      293.14264      300.74349      40676.995      25341.15       75           
    580000  -7819.8106      113.43737     -7933.2479      0.61640401     225.08071      284.46684      300.38442      315.0436       310.2956       40335.385      25128.332      72           
    581000  -7824.2044      111.86176     -7936.0662      0.61640401     221.9544       327.38209      299.95763      302.26931      304.2405       40849.089      25448.362      73           
    582000  -7822.786       111.69373     -7934.4797      0.61640401     221.621        280.0054       300.13445      303.26805      307.26397      40183.605      25033.775      70           
    583000  -7825.3946      110.81853     -7936.2131      0.61640401     219.88445      281.37298      298.43772      299.91798      303.75834      40582.385      25282.209      68           
    584000  -7824.8134      110.27907     -7935.0924      0.61640401     218.81405      324.36638      291.87951      302.5758       304.56805      40618.626      25304.787      67           
    585000  -7825.4555      111.11467     -7936.5701      0.61640401     220.47205      307.38423      301.73518      295.34052      304.79607      40470.737      25212.654      61           
    586000  -7818.3323      114.13131     -7932.4636      0.61640401     226.45762      283.65572      301.10716      320.68653      303.20022      40758.137      25391.7        57           
    587000  -7822.3394      113.75562     -7936.095       0.61640401     225.71218      296.9526       295.5306       324.81468      305.77177      40393.532      25164.557      65           
    588000  -7823.4386      112.6121      -7936.0507      0.61640401     223.44322      361.03215      300.89632      304.28679      306.1198       40805.324      25421.097      63           
    589000  -7825.1335      110.51846     -7935.652       0.61640401     219.28906      278.66955      294.86357      302.35384      305.87791      40484.977      25221.526      55           
    590000  -7823.3921      112.25165     -7935.6438      0.61640401     222.72802      341.10803      299.59005      304.66039      307.22498      40727.548      25372.644      57           
    591000  -7820.6769      113.25039     -7933.9273      0.61640401     224.7097       331.62285      309.06354      296.43816      315.62443      40470.794      25212.69       60           
    592000  -7820.0121      113.69762     -7933.7097      0.61640401     225.59709      320.65251      294.95972      322.28819      312.09555      40611.307      25300.227      55           
    593000  -7821.7214      111.29598     -7933.0174      0.61640401     220.83179      350.504        291.52452      308.43029      308.37174      40615.228      25302.67       60           
    594000  -7823.5465      111.77954     -7935.3261      0.61640401     221.79127      293.84024      307.59437      291.59783      308.27358      40518.971      25242.703      62           
    595000  -7821.2135      113.62729     -7934.8408      0.61640401     225.45754      363.50634      304.08113      306.92626      305.70123      40720.789      25368.433      67           
    596000  -7817.8701      113.68319     -7931.5533      0.61640401     225.56846      354.72516      302.46837      309.25336      310.69115      40500.318      25231.083      64           
    597000  -7820.6788      113.49713     -7934.176       0.61640401     225.19929      380.87203      310.70221      293.96918      312.28516      40483.426      25220.559      59           
    598000  -7821.3916      112.32836     -7933.72        0.61640401     222.88023      325.20562      303.35675      298.38652      315.56685      40550.195      25262.155      58           
    599000  -7821.6787      114.10929     -7935.788       0.61640401     226.41393      408.03615      303.13636      308.27611      309.06825      40884.17       25470.217      67           
    600000  -7824.1099      109.5681      -7933.678       0.61640401     217.40337      402.62306      289.62594      296.88445      302.15393      40360.171      25143.773      60           
    601000  -7826.0238      110.66547     -7936.6893      0.61640401     219.58074      388.95819      296.87124      293.2498       308.47924      40591.38       25287.813      64           
    602000  -7821.5044      111.67194     -7933.1763      0.61640401     221.57776      359.71535      300.6252       298.56137      302.10605      40524.792      25246.33       65           
    603000  -7822.1647      112.2679      -7934.4326      0.61640401     222.76027      360.21004      296.46803      309.19501      300.56081      40517.302      25241.664      71           
    604000  -7822.4231      112.57258     -7934.9957      0.61640401     223.36481      367.84619      300.63248      305.08961      300.24207      40454.429      25202.495      68           
    605000  -7825.3924      109.16263     -7934.555       0.61640401     216.59884      284.17631      294.62444      292.10034      307.21815      40674.276      25339.456      69           
    606000  -7819.8043      111.98885     -7931.7931      0.61640401     222.20657      302.56105      297.6904       307.67287      307.00142      40651.725      25325.407      60           
    607000  -7823.5831      110.87285     -7934.4559      0.61640401     219.99222      342.69882      298.16219      297.01408      302.41004      40482.584      25220.035      69           
    608000  -7823.9787      112.56299     -7936.5417      0.61640401     223.34578      311.32887      294.897        318.08387      297.10925      40595.619      25290.454      59           
    609000  -7824.3719      109.81179     -7934.1836      0.61640401     217.88688      290.37951      297.20808      294.14788      301.36995      40524.78       25246.322      68           
    610000  -7824.1241      109.36497     -7933.4891      0.61640401     217.00031      322.60491      296.30542      290.79266      298.084        40581.333      25281.554      69           
    611000  -7825.3194      110.17107     -7935.4905      0.61640401     218.59977      289.8539       291.06429      304.74853      306.42406      40353.734      25139.763      70           
    612000  -7826.8307      110.62067     -7937.4513      0.61640401     219.49186      316.91674      300.76844      292.22529      305.10051      40591.834      25288.096      75           
    613000  -7825.0468      110.96833     -7936.0151      0.61640401     220.18168      274.06051      300.31512      298.69104      303.48571      40561.652      25269.293      64           
    614000  -7825.5798      111.78684     -7937.3666      0.61640401     221.80575      269.49081      305.6379       297.2303       303.73627      40626.005      25309.384      65           
    615000  -7822.1696      110.77915     -7932.9487      0.61640401     219.80631      294.66462      296.22736      304.10013      295.25286      40453.187      25201.721      68           
    616000  -7823.9448      108.48599     -7932.4308      0.61640401     215.25625      299.19336      293.98069      289.71126      296.07639      40624.534      25308.468      59           
    617000  -7824.9929      109.9768      -7934.9697      0.61640401     218.2143       284.73577      301.86304      290.31132      295.18129      40548.594      25261.158      62           
    618000  -7826.1407      112.83261     -7938.9733      0.61640401     223.88075      330.3426       313.40469      292.77169      292.42469      40364.194      25146.28       59           
    619000  -7824.1035      111.32488     -7935.4283      0.61640401     220.88914      352.55294      303.74076      294.4342       289.83465      40510.23       25237.258      72           
    620000  -7825.0302      109.88883     -7934.919       0.61640401     218.03974      289.35748      293.48626      301.96443      294.52818      40326.553      25122.83       66           
    621000  -7823.4566      111.4138      -7934.8704      0.61640401     221.06558      290.65942      294.36671      312.44554      292.95641      40847.155      25447.157      65           
    622000  -7824.443       110.28255     -7934.7255      0.61640401     218.82097      305.00979      302.22327      291.76089      291.74905      40368.391      25148.894      57           
    623000  -7827.6627      110.98065     -7938.6434      0.61640401     220.20612      320.91505      303.06373      295.51384      289.34887      40711.677      25362.757      57           
    624000  -7824.905       111.90293     -7936.808       0.61640401     222.03609      292.04063      297.12689      312.70932      289.83938      40596.551      25291.035      58           
    625000  -7824.3524      111.01567     -7935.368       0.61640401     220.2756       285.76972      302.37093      299.10218      287.84882      40589.837      25286.852      60           
    626000  -7827.8781      109.41155     -7937.2897      0.61640401     217.09273      327.91547      292.39367      297.16525      296.14491      40647.35       25322.682      66           
    627000  -7825.5737      107.11474     -7932.6884      0.61640401     212.53544      311.22993      291.69902      281.37555      299.18914      40501.784      25231.996      55           
    628000  -7821.015       111.89768     -7932.9127      0.61640401     222.02568      320.14474      301.16636      303.05579      298.64878      40559.508      25267.957      51           
    629000  -7823.0061      110.89842     -7933.9045      0.61640401     220.04297      277.23485      297.24008      306.85781      285.45937      40448.212      25198.621      53           
    630000  -7823.7227      109.85141     -7933.5741      0.61640401     217.96551      324.00319      300.16371      292.44193      285.19412      40714.457      25364.488      50           
    631000  -7818.0181      114.43032     -7932.4484      0.61640401     227.0509       299.93512      310.43227      313.13682      283.97913      40295.015      25103.182      62           
    632000  -7822.9659      110.49581     -7933.4617      0.61640401     219.24412      334.83132      299.42191      297.89869      284.77466      40723.766      25370.287      50           
    633000  -7823.8673      111.40246     -7935.2698      0.61640401     221.04307      285.39941      299.10126      306.49366      289.28034      40513.499      25239.295      53           
    634000  -7817.7547      113.49887     -7931.2536      0.61640401     225.20274      291.83706      303.3259       315.27939      290.91034      40732.429      25375.684      58           
    635000  -7822.2479      111.64616     -7933.894       0.61640401     221.52662      320.55214      303.21895      299.54174      292.04206      40590.952      25287.547      60           
    636000  -7823.3692      113.25102     -7936.6202      0.61640401     224.71095      288.87244      303.81273      311.81624      295.44801      40693.482      25351.421      67           
    637000  -7823.9742      109.43787     -7933.4121      0.61640401     217.14497      329.80897      296.78951      291.83545      291.87025      40662.56       25332.157      64           
    638000  -7820.4936      112.0161      -7932.5097      0.61640401     222.26064      299.69         300.5655       307.07399      293.63634      40343.716      25133.522      67           
    639000  -7821.6853      109.78357     -7931.4689      0.61640401     217.8309       268.73306      308.07032      280.15179      296.41361      40768.095      25397.904      58           
    640000  -7821.9793      111.49246     -7933.4717      0.61640401     221.22164      306.89005      303.71731      297.81708      294.30899      40375.95       25153.604      68           
    641000  -7823.1702      109.90905     -7933.0792      0.61640401     218.07988      267.72522      299.31453      294.38788      296.08066      40784.812      25408.319      63           
    642000  -7828.0744      110.26454     -7938.339       0.61640401     218.78522      287.41203      301.93436      291.44233      298.01575      40619.763      25305.495      57           
    643000  -7825.935       110.31306     -7936.2481      0.61640401     218.88151      269.48795      300.50707      292.75982      306.36091      40997.722      25540.958      55           
    644000  -7823.9318      110.52004     -7934.4519      0.61640401     219.2922       298.0393       299.23419      296.77414      298.12667      40541.836      25256.948      61           
    645000  -7820.6869      112.70163     -7933.3885      0.61640401     223.62086      350.72177      306.70959      298.71441      298.81665      40334.58       25127.831      65           
    646000  -7828.1579      108.68851     -7936.8464      0.61640401     215.65808      278.25906      296.31143      288.77964      296.48072      40578.562      25279.827      55           
    647000  -7824.0192      113.33314     -7937.3524      0.61640401     224.8739       295.84129      299.00136      320.05697      291.51451      40611.588      25300.402      61           
    648000  -7822.0614      112.9267      -7934.9881      0.61640401     224.06744      289.74957      300.72421      314.02738      294.81667      40671.054      25337.449      67           
    649000  -7824.2765      109.84583     -7934.1223      0.61640401     217.95444      258.5404       295.41571      299.40821      297.95698      40357.126      25141.877      53           
    650000  -7826.8626      108.91618     -7935.7788      0.61640401     216.10983      317.10669      294.31472      291.7711       294.63277      40906.859      25484.352      60           
    651000  -7823.6117      110.84805     -7934.4598      0.61640401     219.94301      306.89287      295.08474      305.08232      297.41653      40383.857      25158.53       58           
    652000  -7825.6084      109.87139     -7935.4798      0.61640401     218.00514      340.7657       298.14531      290.71191      300.2566       40687.767      25347.861      55           
    653000  -7823.6287      113.35242     -7936.9811      0.61640401     224.91214      267.41714      304.61449      311.26661      300.37335      40545.231      25259.063      58           
    654000  -7820.9119      110.81174     -7931.7237      0.61640401     219.87097      307.92874      295.98103      301.17748      306.36272      40644.454      25320.878      50           
    655000  -7824.1414      110.21136     -7934.3527      0.61640401     218.67971      325.04463      292.78023      302.89988      296.39139      40400.426      25168.852      59           
    656000  -7824.4019      111.10451     -7935.5064      0.61640401     220.45188      355.54173      304.70333      290.38797      296.05317      40493.913      25227.092      59           
    657000  -7821.2534      112.45343     -7933.7068      0.61640401     223.1284       335.71671      305.43506      302.29635      289.27316      40689.23       25348.772      59           
    658000  -7824.0057      109.99218     -7933.9979      0.61640401     218.24482      321.95221      300.40477      290.05768      296.81537      40432.887      25189.074      58           
    659000  -7823.4599      111.19996     -7934.6599      0.61640401     220.64128      288.05825      300.48771      301.39887      295.08165      40770.435      25399.362      63           
    660000  -7824.5048      111.6894      -7936.1942      0.61640401     221.61241      313.78316      305.47568      296.45617      293.71137      40186.525      25035.595      66           
    661000  -7821.1717      112.22168     -7933.3934      0.61640401     222.66855      324.89407      302.33017      304.24819      295.41987      40737.97       25379.136      57           
    662000  -7823.2346      111.31416     -7934.5488      0.61640401     220.86787      267.32246      301.74654      300.05193      300.429        40418.981      25180.411      55           
    663000  -7824.4838      110.20682     -7934.6906      0.61640401     218.67069      214.90408      297.77289      299.8151       304.20377      40654.796      25327.32       60           
    664000  -7826.7108      109.10977     -7935.8206      0.61640401     216.49394      225.79389      291.45854      300.43959      302.06848      40416.177      25178.664      55           
    665000  -7820.6259      112.87377     -7933.4997      0.61640401     223.96243      329.88028      304.03739      305.00183      301.06791      40580.179      25280.835      53           
    666000  -7824.5711      110.57096     -7935.1421      0.61640401     219.39322      309.53579      298.71384      298.80751      292.09622      40608.325      25298.369      57           
    667000  -7828.9321      110.02723     -7938.9593      0.61640401     218.31435      295.78265      297.00026      297.0689       295.82572      40487.073      25222.832      49           
    668000  -7827.9148      112.31142     -7940.2263      0.61640401     222.84661      291.81832      304.90223      303.1291       293.79025      40603.864      25295.591      39           
    669000  -7829.7187      111.76563     -7941.4843      0.61640401     221.76368      325.03127      304.61868      298.91951      289.82226      40350.413      25137.694      51           
    670000  -7827.5509      112.74589     -7940.2968      0.61640401     223.70869      330.6565       302.395        309.1549       290.3774       40769.199      25398.592      51           
    671000  -7830.8342      111.69246     -7942.5266      0.61640401     221.61848      238.71424      298.93431      309.80838      291.92139      40289.897      25099.994      39           
    672000  -7828.7444      111.85625     -7940.6007      0.61640401     221.94348      264.52595      300.53016      307.12929      295.16894      40675.154      25340.003      46           
    673000  -7833.3769      110.27884     -7943.6557      0.61640401     218.8136       277.80376      305.92191      285.48906      299.70528      40396.884      25166.645      46           
    674000  -7830.8274      109.80625     -7940.6336      0.61640401     217.8759       428.75998      297.97254      288.67983      296.19405      40469.458      25211.857      41           
    675000  -7830.6699      111.15663     -7941.8266      0.61640401     220.5553       281.0714       300.35715      300.51341      298.48353      40734.894      25377.22       45           
    676000  -7830.7813      112.04342     -7942.8247      0.61640401     222.31486      302.10358      302.99266      303.313        294.56536      40356.322      25141.375      53           
    677000  -7829.0595      112.90401     -7941.9635      0.61640401     224.02241      297.03325      306.93322      304.15316      294.57498      40664.274      25333.225      52           
    678000  -7828.7986      111.9304      -7940.729       0.61640401     222.0906       263.36398      306.99078      298.40251      294.00722      40331.733      25126.057      47           
    679000  -7828.7256      112.34752     -7941.0731      0.61640401     222.91824      286.81728      304.45188      304.88673      291.74783      40468.442      25211.224      47           
    680000  -7825.7254      114.27974     -7940.0052      0.61640401     226.75213      339.00355      311.29226      307.49903      289.28607      40433.711      25189.588      47           
    681000  -7830.1432      112.97991     -7943.1231      0.61640401     224.17303      295.07914      308.18723      303.37689      292.83439      40770.677      25399.513      48           
    682000  -7828.0423      112.54678     -7940.5891      0.61640401     223.31362      300.73605      304.17036      304.01269      300.17717      40446.614      25197.626      50           
    683000  -7829.5995      112.01414     -7941.6136      0.61640401     222.25676      292.34564      300.81802      306.90996      294.0718       40700.157      25355.58       50           
    684000  -7832.1932      110.66145     -7942.8547      0.61640401     219.57276      309.822        294.50476      305.20632      294.68774      40656.051      25328.102      48           
    685000  -7832.6294      108.99016     -7941.6196      0.61640401     216.25663      332.73572      299.79012      286.21641      285.57306      40470.445      25212.472      42           
    686000  -7829.5679      111.96097     -7941.5289      0.61640401     222.15127      284.4527       303.23689      304.11978      290.93339      40610.438      25299.686      52           
    687000  -7828.2223      111.37816     -7939.6005      0.61640401     220.99486      283.67251      297.78426      308.90477      286.81327      40440.672      25193.924      46           
    688000  -7833.0531      109.54582     -7942.5989      0.61640401     217.35915      237.89116      304.65895      286.95756      287.33118      40719.158      25367.417      50           
    689000  -7830.7873      111.52731     -7942.3146      0.61640401     221.2908       246.39441      302.56129      303.7585       289.34579      40372.15       25151.236      43           
    690000  -7830.3127      110.84502     -7941.1578      0.61640401     219.93701      323.25962      300.27796      298.62911      290.0443       40529.292      25249.133      46           
    691000  -7831.6881      109.789       -7941.4771      0.61640401     217.84167      253.43196      304.51273      286.07841      295.74457      40448.634      25198.885      49           
    692000  -7830.5352      110.06193     -7940.5971      0.61640401     218.38321      238.11176      298.65936      296.69617      299.22265      40650.732      25324.788      49           
    693000  -7833.0985      109.02751     -7942.126       0.61640401     216.33074      331.11571      298.63722      285.82244      294.60712      40591.761      25288.05       47           
    694000  -7832.4712      109.95896     -7942.4301      0.61640401     218.1789       267.85714      295.79665      301.68988      288.02158      40274.338      25090.301      53           
    695000  -7825.502       115.22408     -7940.7261      0.61640401     228.62587      315.82959      314.56698      312.65768      281.18183      40739.842      25380.303      47           
    696000  -7830.0864      111.39131     -7941.4777      0.61640401     221.02095      350.38325      304.50848      298.01652      276.60849      40394.609      25165.227      56           
    697000  -7828.2306      111.8376      -7940.0682      0.61640401     221.90647      354.43009      302.03462      307.22271      265.94047      40687.303      25347.572      57           
    698000  -7830.1041      111.1615      -7941.2656      0.61640401     220.56496      309.42428      299.28352      306.79134      274.26883      40379.007      25155.508      55           
    699000  -7829.8449      110.53851     -7940.3834      0.61640401     219.32884      286.46983      303.93879      296.17         275.20891      40634.271      25314.533      65           
    700000  -7832.3081      110.53269     -7942.8408      0.61640401     219.31729      321.50372      292.59162      311.09854      276.13547      40487.707      25223.226      51           
    701000  -7835.6763      108.53426     -7944.2105      0.61640401     215.35204      318.62775      293.22958      295.51435      275.13516      40520.067      25243.386      51           
    702000  -7831.5355      109.25838     -7940.7939      0.61640401     216.78882      314.1504       297.41154      295.06043      274.90846      40340.564      25131.559      49           
    703000  -7830.3284      111.0278      -7941.3562      0.61640401     220.29968      347.12135      301.55949      301.51491      271.64412      40581.573      25281.703      48           
    704000  -7830.931       112.85379     -7943.7848      0.61640401     223.92278      348.55827      306.57426      309.25401      265.63771      40653.186      25326.317      49           
    705000  -7828.4323      112.20127     -7940.6336      0.61640401     222.62806      319.71222      305.28187      309.48         257.41653      40319.935      25118.707      51           
    706000  -7833.1196      109.33932     -7942.4589      0.61640401     216.94942      311.57556      289.60806      310.02047      263.81823      40701.546      25356.445      52           
    707000  -7829.6834      111.29392     -7940.9773      0.61640401     220.8277       337.90192      304.27898      300.65354      267.19574      40442.123      25194.829      53           
    708000  -7831.8678      109.65239     -7941.5202      0.61640401     217.57062      286.48809      300.2868       296.82787      267.86866      40708.489      25360.77       49           
    709000  -7834.5899      108.7876      -7943.3775      0.61640401     215.85471      247.42187      297.3891       296.67879      266.66755      40567.302      25272.813      46           
    710000  -7832.483       110.12137     -7942.6044      0.61640401     218.50114      273.9077       305.26096      292.12852      273.20149      40468.246      25211.102      45           
    711000  -7832.2798      108.00015     -7940.28        0.61640401     214.29225      295.32104      284.16819      306.8478       271.44324      40475.163      25215.411      61           
    712000  -7833.8719      107.14969     -7941.0216      0.61640401     212.60478      315.55274      287.77074      294.80101      269.15967      40553.889      25264.457      53           
    713000  -7832.2636      107.62932     -7939.893       0.61640401     213.55646      271.24551      290.34289      297.70734      265.59226      40609.643      25299.191      49           
    714000  -7832.645       108.5302      -7941.1752      0.61640401     215.34397      322.43986      294.19218      296.01116      266.43585      40306.621      25110.413      52           
    715000  -7830.6684      110.12998     -7940.7984      0.61640401     218.51824      310.50955      302.29368      295.1768       272.52343      40705.054      25358.63       44           
    716000  -7833.5271      109.73656     -7943.2636      0.61640401     217.73762      287.43754      296.45124      301.52414      273.99476      40381.302      25156.938      54           
    717000  -7831.2569      109.78736     -7941.0442      0.61640401     217.83841      349.54405      301.24224      291.92839      273.39245      40778.577      25404.434      50           
    718000  -7830.6838      110.11651     -7940.8004      0.61640401     218.49152      333.42198      300.5376       295.34062      277.45334      40274.716      25090.536      49           
    719000  -7831.0312      112.38071     -7943.4119      0.61640401     222.9841       310.68874      307.90266      301.60598      279.56505      40520.276      25243.516      58           
    720000  -7831.7192      108.97683     -7940.696       0.61640401     216.23017      260.05124      291.84711      301.70521      283.60156      40700.789      25355.973      55           
    721000  -7834.1909      110.67022     -7944.8611      0.61640401     219.59018      288.2601       296.12709      306.20409      285.04405      40514.661      25240.018      55           
    722000  -7830.0485      111.88118     -7941.9297      0.61640401     221.99293      321.43465      304.4448       301.0584       285.4365       40572.05       25275.771      53           
    723000  -7827.4408      113.75982     -7941.2006      0.61640401     225.72051      314.86468      306.70179      312.68633      283.31754      40433.91       25189.711      55           
    724000  -7829.8348      110.46953     -7940.3043      0.61640401     219.19196      373.99049      298.35853      296.57191      286.35881      40617.578      25304.134      55           
    725000  -7830.6666      109.61491     -7940.2815      0.61640401     217.49623      259.6818       294.43444      301.58003      287.82353      40227.929      25061.388      52           
    726000  -7829.0742      112.04245     -7941.1166      0.61640401     222.31293      330.45065      304.03258      303.42287      282.51126      40856.006      25452.671      50           
    727000  -7830.5402      111.04108     -7941.5813      0.61640401     220.32602      346.88492      305.26976      294.57302      275.80333      40409.32       25174.392      54           
    728000  -7831.6834      108.90652     -7940.5899      0.61640401     216.09067      303.37313      301.17201      288.15068      270.9738       40732.616      25375.801      48           
    729000  -7832.3245      108.781       -7941.1055      0.61640401     215.84162      283.67031      291.92593      300.75227      275.86201      40554.079      25264.575      41           
    730000  -7825.2538      113.36082     -7938.6147      0.61640401     224.92883      309.12624      308.22591      308.53508      280.35346      40417.274      25179.348      54           
    731000  -7829.2386      110.87899     -7940.1176      0.61640401     220.00441      301.57045      301.71426      298.72342      285.04336      40771.078      25399.762      61           
    732000  -7831.6656      110.56168     -7942.2272      0.61640401     219.37481      293.20065      304.83597      290.78499      290.92574      40294.387      25102.791      60           
    733000  -7829.4163      111.14897     -7940.5653      0.61640401     220.5401       309.34883      306.77102      291.82991      289.36452      40759.407      25392.491      54           
    734000  -7831.4998      110.59376     -7942.0936      0.61640401     219.43846      253.6421       299.93487      302.02607      283.5008       40376.999      25154.257      51           
    735000  -7829.9412      111.26298     -7941.2042      0.61640401     220.76632      274.22266      302.14328      303.73928      280.37393      40813.004      25425.881      61           
    736000  -7828.1876      111.2831      -7939.4707      0.61640401     220.80624      265.8197       303.79512      301.9986       279.44893      40333.289      25127.026      55           
    737000  -7830.2828      111.51421     -7941.797       0.61640401     221.2648       251.33924      305.91276      301.63109      278.60046      40694.809      25352.248      56           
    738000  -7832.31        110.22107     -7942.5311      0.61640401     218.69897      295.72455      299.02894      299.03959      281.44447      40409.703      25174.631      58           
    739000  -7830.0391      110.55697     -7940.5961      0.61640401     219.36546      316.019        307.1187       288.31102      281.53736      40296.516      25104.118      63           
    740000  -7830.0288      113.30723     -7943.3361      0.61640401     224.82249      314.88046      311.2152       302.71343      282.91024      40966.626      25521.586      56           
    741000  -7830.7179      109.92738     -7940.6453      0.61640401     218.11623      270.9364       301.57438      292.92246      286.92672      40186.33       25035.473      53           
    742000  -7834.5144      107.3401      -7941.8545      0.61640401     212.9826       261.712        287.29623      295.84528      285.2705       40872.354      25462.856      61           
    743000  -7830.7244      108.57474     -7939.2991      0.61640401     215.43235      231.71801      290.1619       302.97453      281.51429      40072.645      24964.649      50           
    744000  -7827.0387      110.60586     -7937.6445      0.61640401     219.46247      240.21809      306.49133      293.76966      281.70591      40668.947      25336.136      55           
    745000  -7829.3728      111.08379     -7940.4566      0.61640401     220.41078      244.98451      302.85749      302.06969      282.22555      40187.299      25036.076      49           
    746000  -7832.0417      108.02073     -7940.0624      0.61640401     214.3331       294.50819      295.06503      288.58066      281.41951      40752.241      25388.027      47           
    747000  -7827.2746      112.31024     -7939.5849      0.61640401     222.84427      296.36183      304.19274      307.12609      281.82134      40369.393      25149.519      47           
    748000  -7833.6041      109.97072     -7943.5748      0.61640401     218.20223      304.26729      304.45682      288.28652      283.2365       40423.957      25183.511      50           
    749000  -7830.6854      109.25058     -7939.936       0.61640401     216.77335      273.37978      296.84452      296.17053      281.47877      40840.902      25443.262      52           
    750000  -7830.1204      109.89999     -7940.0204      0.61640401     218.06189      280.13654      296.70113      300.95185      281.29579      40054.099      24953.095      52           
    751000  -7828.9988      114.27706     -7943.2759      0.61640401     226.74681      307.5001       312.66369      309.83925      276.48134      40972.373      25525.166      59           
    752000  -7826.3413      112.3179      -7938.6592      0.61640401     222.85948      296.69328      306.05105      304.71246      280.19503      40152.248      25014.241      57           
    753000  -7831.5929      109.0745      -7940.6674      0.61640401     216.42398      296.01143      293.40764      299.87439      276.84892      40790.422      25411.813      57           
    754000  -7832.5616      110.22234     -7942.784       0.61640401     218.7015       269.01061      310.24232      284.99892      276.69132      40323.666      25121.031      57           
    755000  -7834.3016      109.82064     -7944.1222      0.61640401     217.90446      292.71768      297.89741      297.85648      281.35161      40772.37       25400.567      59           
    756000  -7829.8518      112.33245     -7942.1843      0.61640401     222.88835      247.15235      302.35515      310.85433      287.93497      40287.556      25098.535      53           
    757000  -7833.2297      109.49727     -7942.727       0.61640401     217.26281      247.50964      294.9003       301.43555      284.71065      40372.661      25151.554      54           
    758000  -7834.1112      109.68591     -7943.7971      0.61640401     217.63712      246.55049      298.16947      297.91737      285.47402      40774.505      25401.897      56           
    759000  -7831.3517      110.24351     -7941.5953      0.61640401     218.74351      274.15849      303.88641      293.53839      280.28715      40233.416      25064.807      56           
    760000  -7831.9606      108.25725     -7940.2179      0.61640401     214.8024       268.33055      293.11752      294.52839      281.05032      41017.145      25553.058      50           
    761000  -7829.0436      110.54255     -7939.5861      0.61640401     219.33686      335.7763       297.43113      303.16042      275.18483      40159.585      25018.812      56           
    762000  -7830.3796      110.28517     -7940.6647      0.61640401     218.82617      327.85342      299.07159      299.04205      275.03795      40674.342      25339.497      62           
    763000  -7836.0378      108.89525     -7944.933       0.61640401     216.0683       344.29375      296.61809      290.55638      278.24286      40432.126      25188.6        62           
    764000  -7833.3733      108.4197      -7941.793       0.61640401     215.12472      342.64968      286.56463      300.59554      284.38673      40690.626      25349.642      60           
    765000  -7836.0928      109.30792     -7945.4007      0.61640401     216.88712      348.77414      293.08389      296.59772      285.68625      40483.137      25220.379      65           
    766000  -7832.0478      110.59632     -7942.6441      0.61640401     219.44354      263.85087      298.70883      300.61949      295.3961       40516          25240.853      56           
    767000  -7828.9131      111.25634     -7940.1695      0.61640401     220.75314      278.5098       304.28498      298.01695      289.30488      40850.615      25449.313      59           
    768000  -7832.4434      109.84349     -7942.2869      0.61640401     217.94979      265.17842      295.18172      303.08627      283.71416      40138.902      25005.926      60           
    769000  -7832.0313      109.26344     -7941.2947      0.61640401     216.79887      274.468        290.05156      307.17131      278.18117      40693.799      25351.619      64           
    770000  -7834.1098      107.75014     -7941.86        0.61640401     213.7962       296.88618      293.9103       288.85032      277.03467      40437.173      25191.744      69           
    771000  -7828.7368      110.48592     -7939.2227      0.61640401     219.22449      290.25794      298.01209      303.83595      276.60833      40800.736      25418.239      62           
    772000  -7829.9678      110.92808     -7940.8958      0.61640401     220.10181      288.59694      300.27611      303.06305      280.52002      40250.569      25075.493      66           
    773000  -7828.1091      110.9365      -7939.0457      0.61640401     220.11853      305.72842      299.93838      301.91589      283.85463      40707.958      25360.439      54           
    774000  -7829.8577      110.79608     -7940.6538      0.61640401     219.83991      306.01671      304.83768      292.86882      286.77463      40432.59       25188.889      52           
    775000  -7833.7148      110.49511     -7944.2099      0.61640401     219.24272      353.32058      297.66991      299.93519      280.94126      40594.129      25289.526      59           
    776000  -7833.0319      109.78002     -7942.8119      0.61640401     217.82385      333.98081      293.75001      302.85577      273.74343      40439.465      25193.172      65           
    777000  -7826.9566      110.82102     -7937.7776      0.61640401     219.88938      326.76086      306.1183       294.2003       268.48141      40442.345      25194.967      60           
    778000  -7829.4702      110.35164     -7939.8218      0.61640401     218.95804      278.53985      301.32964      300.9104       267.74922      40709.254      25361.247      64           
    779000  -7831.4777      110.38938     -7941.8671      0.61640401     219.03294      316.61578      292.85765      311.19864      269.28603      40473.005      25214.067      58           
    780000  -7830.4987      109.66499     -7940.1636      0.61640401     217.59561      277.61159      298.18374      300.10096      269.26968      40645.355      25321.438      65           
    781000  -7830.6934      109.80819     -7940.5016      0.61640401     217.87975      268.97373      295.83027      303.16461      277.57981      40333.126      25126.925      65           
    782000  -7827.7566      112.58834     -7940.3449      0.61640401     223.39607      298.93268      301.48714      311.71307      286.15002      40934.803      25501.761      69           
    783000  -7829.0623      111.07779     -7940.1401      0.61640401     220.39887      329.69865      296.84465      305.77097      285.09916      40320.906      25119.312      61           
    784000  -7833.1062      109.08011     -7942.1863      0.61640401     216.43511      322.2883       293.96066      295.36585      285.78015      40598.833      25292.456      60           
    785000  -7831.4616      110.43979     -7941.9014      0.61640401     219.13295      274.26498      296.34745      304.74271      285.76559      40520.036      25243.367      55           
    786000  -7834.3574      108.07571     -7942.4331      0.61640401     214.44218      266.18512      284.74536      305.71736      281.70721      40480.411      25218.681      57           
    787000  -7830.3342      109.99922     -7940.3334      0.61640401     218.25878      241.88603      297.41575      303.94789      275.60718      40410.859      25175.351      52           
    788000  -7826.5433      111.24208     -7937.7854      0.61640401     220.72485      314.75091      298.01449      310.23453      270.01995      40413.453      25176.967      54           
    789000  -7829.0355      112.45416     -7941.4896      0.61640401     223.12984      293.32197      305.38514      308.65657      273.32429      40754.186      25389.239      52           
    790000  -7831.153       110.26505     -7941.418       0.61640401     218.78624      272.18245      301.491        297.84843      277.75943      40314.959      25115.607      50           
    791000  -7833.6391      108.87889     -7942.518       0.61640401     216.03583      271.98423      296.23145      294.57811      280.42595      40615.517      25302.85       47           
    792000  -7832.3689      109.89838     -7942.2673      0.61640401     218.05871      249.78552      301.74891      294.06804      284.25847      40336.583      25129.079      48           
    793000  -7831.7842      109.90154     -7941.6858      0.61640401     218.06497      267.3803       304.90481      287.35952      289.09418      40788.22       25410.441      48           
    794000  -7827.1342      112.76509     -7939.8993      0.61640401     223.74677      345.34878      305.77382      305.00716      283.62232      40355.999      25141.174      57           
    795000  -7831.4209      109.18235     -7940.6032      0.61640401     216.63796      311.84873      295.69961      296.56426      276.14283      40478.206      25217.307      58           
    796000  -7827.216       110.36918     -7937.5852      0.61640401     218.99285      322.0921       293.86849      308.4787       273.12973      40456.813      25203.98       57           
    797000  -7830.1576      108.64802     -7938.8056      0.61640401     215.57775      307.09011      297.18227      293.31715      265.99775      40572.541      25276.077      55           
    798000  -7832.8332      109.34357     -7942.1767      0.61640401     216.95784      299.15768      299.09906      295.0345       270.877        40450.965      25200.336      42           
    799000  -7828.394       111.44007     -7939.8341      0.61640401     221.1177       287.1954       302.05074      305.83117      275.322        40496.575      25228.751      48           
    800000  -7832.0932      108.48663     -7940.5798      0.61640401     215.25752      248.46916      297.40594      290.80455      280.8519       40580.873      25281.267      48           
    801000  -7832.0083      108.76332     -7940.7716      0.61640401     215.80653      251.16364      289.30853      304.75942      281.22953      40407.079      25172.997      48           
    802000  -7832.7917      109.11241     -7941.9041      0.61640401     216.49919      266.97783      288.03358      307.82357      284.43437      40583.155      25282.689      52           
    803000  -7833.724       107.73041     -7941.4544      0.61640401     213.75705      262.55695      291.18401      294.19011      279.07962      40429.357      25186.875      47           
    804000  -7829.7916      109.68594     -7939.4775      0.61640401     217.63718      269.59601      299.55605      297.49581      273.28288      40767.092      25397.279      43           
    805000  -7831.9169      110.47265     -7942.3896      0.61640401     219.19816      337.28151      299.06305      302.06909      268.4769       40438.685      25192.687      52           
    806000  -7832.3606      109.25713     -7941.6177      0.61640401     216.78634      340.21305      295.88395      297.49266      268.81609      40744.956      25383.489      50           
    807000  -7829.0451      111.31949     -7940.3646      0.61640401     220.87844      347.2295       310.86369      290.07633      268.72802      40501.227      25231.649      58           
    808000  -7825.6582      115.11165     -7940.7699      0.61640401     228.40279      361.91309      308.24548      320.26498      275.86105      40470.544      25212.534      52           
    809000  -7829.7933      110.67416     -7940.4675      0.61640401     219.598        331.19839      300.33244      299.56385      278.80724      40540.154      25255.9        49           
    810000  -7829.7772      112.05883     -7941.836       0.61640401     222.34543      374.23977      298.9418       308.86397      283.19613      40484.898      25221.476      50           
    811000  -7831.9275      111.9069      -7943.8344      0.61640401     222.04397      370.41593      301.28843      304.14071      284.84623      40711.886      25362.886      48           
    812000  -7829.268       111.76428     -7941.0323      0.61640401     221.761        338.95296      302.73452      302.41808      284.27867      40418.498      25180.11       50           
    813000  -7833.1982      108.49463     -7941.6928      0.61640401     215.27341      369.11265      294.49601      290.02549      279.91469      40679.236      25342.546      47           
    814000  -7831.424       111.29616     -7942.7202      0.61640401     220.83215      349.37113      299.9991       304.11379      277.15815      40237.398      25067.288      53           
    815000  -7831.1958      111.16975     -7942.3655      0.61640401     220.58133      294.27794      300.74654      306.84121      269.3386       40602.566      25294.782      56           
    816000  -7830.5266      110.83853     -7941.3651      0.61640401     219.92413      301.52241      304.49913      298.95393      266.50441      40535.805      25253.191      56           
    817000  -7832.0353      110.08101     -7942.1163      0.61640401     218.42107      295.52992      299.17588      301.31179      267.29494      40511.038      25237.761      59           
    818000  -7831.7264      108.43773     -7940.1641      0.61640401     215.1605       278.90205      289.50237      300.73654      281.42107      40565.379      25271.615      55           
    819000  -7834.1722      108.25334     -7942.4255      0.61640401     214.79464      303.93823      289.56166      297.32109      284.27165      40354.795      25140.424      50           
    820000  -7834.7108      107.65748     -7942.3682      0.61640401     213.61234      316.83052      287.70898      293.7844       288.24229      40764.406      25395.605      57           
    821000  -7832.9293      110.93118     -7943.8605      0.61640401     220.10797      325.91799      300.91881      297.11883      292.77446      40274.904      25090.653      59           
    822000  -7831.3824      110.81956     -7942.202       0.61640401     219.88648      308.58492      293.5468       309.18433      288.34814      40688.634      25348.401      64           
    823000  -7831.8827      108.76345     -7940.6462      0.61640401     215.80679      282.80359      287.08278      305.86462      284.30894      40339.478      25130.882      62           
    824000  -7832.274       109.23189     -7941.5058      0.61640401     216.73626      248.26141      295.02646      299.91512      282.255        40619.415      25305.279      57           
    825000  -7828.9691      110.09637     -7939.0654      0.61640401     218.45154      276.67087      298.93528      298.85708      283.13653      40402.975      25170.44       54           
    826000  -7832.0084      108.92799     -7940.9364      0.61640401     216.13326      347.86496      293.25752      296.98122      277.09076      40658.539      25329.652      43           
    827000  -7829.1465      111.5331      -7940.6796      0.61640401     221.30228      308.3469       304.53011      302.36301      271.75065      40524.665      25246.251      60           
    828000  -7827.9998      111.04649     -7939.0463      0.61640401     220.33676      287.51531      293.50149      315.35687      275.75496      40075.735      24966.574      60           
    829000  -7831.0576      109.46416     -7940.5218      0.61640401     217.19713      347.50295      291.51254      301.75474      280.74737      40817.413      25428.628      59           
    830000  -7828.3279      111.75284     -7940.0807      0.61640401     221.73829      320.43952      303.77834      302.24199      282.26606      40500.242      25231.036      45           
    831000  -7827.728       112.30504     -7940.0331      0.61640401     222.83396      285.66473      313.33438      293.58935      282.91147      40634.782      25314.852      51           
    832000  -7829.3168      109.58891     -7938.9057      0.61640401     217.44464      333.59718      304.60659      284.20521      280.81164      40491.788      25225.769      52           
    833000  -7827.8879      113.20676     -7941.0947      0.61640401     224.62313      271.13573      308.68251      308.12981      281.99271      40833.514      25438.659      50           
    834000  -7830.8258      109.97565     -7940.8015      0.61640401     218.21201      215.57667      302.41408      295.79523      283.07494      40306.732      25110.481      53           
    835000  -7827.6316      111.39656     -7939.0282      0.61640401     221.03136      260.37493      301.76355      305.28431      283.01627      40594.046      25289.474      54           
    836000  -7831.809       110.58511     -7942.3941      0.61640401     219.4213       300.12602      304.55919      292.17482      285.90056      40574.085      25277.038      62           
    837000  -7830.0031      109.8457      -7939.8488      0.61640401     217.95418      279.76413      300.67964      293.97279      283.8624       40465.802      25209.58       55           
    838000  -7830.527       110.10483     -7940.6318      0.61640401     218.46833      267.07422      293.15181      306.91838      287.5435       40897.413      25478.467      55           
    839000  -7830.445       110.87299     -7941.318       0.61640401     219.99251      281.16306      298.83732      303.66972      286.7249       40222.66       25058.106      53           
    840000  -7831.3089      109.66399     -7940.9729      0.61640401     217.59362      310.84062      295.91364      295.83932      292.80872      40733.931      25376.62       59           
    841000  -7836.7089      108.2535      -7944.9624      0.61640401     214.79495      368.46387      297.14336      281.81856      285.86943      40394.665      25165.263      59           
    842000  -7833.2611      109.74681     -7943.0079      0.61640401     217.75795      332.72891      293.3679       300.27717      287.6121       40807.814      25422.648      59           
    843000  -7832.7106      105.5476      -7938.2582      0.61640401     209.42594      352.31233      278.23973      289.20643      291.79766      40439.003      25192.884      57           
    844000  -7828.4823      110.84273     -7939.325       0.61640401     219.93247      313.63361      291.07445      311.2242       295.65857      40733.581      25376.402      51           
    845000  -7830.723       110.44861     -7941.1716      0.61640401     219.15046      318.63796      301.15549      294.24712      290.05037      40554.637      25264.923      55           
    846000  -7828.5937      109.96709     -7938.5608      0.61640401     218.19504      289.70863      306.74395      284.56149      287.02572      40523.878      25245.76       55           
    847000  -7827.055       111.23961     -7938.2946      0.61640401     220.71995      287.07497      300.19479      304.3566       285.69872      40810.6        25424.384      53           
    848000  -7825.1828      113.02073     -7938.2035      0.61640401     224.25402      251.48538      306.71508      309.1904       287.87098      40242.986      25070.769      50           
    849000  -7827.8796      110.0116      -7937.8912      0.61640401     218.28335      278.81948      299.18272      295.75444      290.5296       40877.279      25465.924      45           
    850000  -7828.425       111.30261     -7939.7276      0.61640401     220.84496      308.41546      301.94036      299.17448      293.89684      40354.919      25140.502      47           
    851000  -7828.0113      111.63233     -7939.6436      0.61640401     221.49917      344.9831       298.06299      306.3851       290.24147      40800.407      25418.033      55           
    852000  -7830.8738      111.20782     -7942.0816      0.61640401     220.65687      313.82919      293.52086      311.83593      289.0623       40382.695      25157.805      56           
    853000  -7830.2915      110.38047     -7940.672       0.61640401     219.01525      308.90725      292.52746      306.59901      291.85113      40725.561      25371.406      60           
    854000  -7832.3742      109.41574     -7941.7899      0.61640401     217.10105      320.78241      294.91913      296.69918      285.72857      40123.885      24996.571      57           
    855000  -7827.7295      112.59215     -7940.3217      0.61640401     223.40363      371.93706      298.86276      310.78343      289.88033      40606.094      25296.98       59           
    856000  -7826.7702      111.7339      -7938.5041      0.61640401     221.70072      370.07541      298.9062       303.92341      293.30512      40709.438      25361.361      53           
    857000  -7829.4978      110.07429     -7939.5721      0.61640401     218.40774      330.20697      294.87493      298.7003       295.87605      40295.356      25103.395      57           
    858000  -7830.1838      109.97789     -7940.1616      0.61640401     218.21645      372.61198      297.37862      291.64291      296.48262      40831.067      25437.135      59           
    859000  -7829.2647      110.76551     -7940.0302      0.61640401     219.77924      318.757        296.00388      301.64695      300.73168      40272.822      25089.357      57           
    860000  -7828.7379      111.04082     -7939.7787      0.61640401     220.32551      307.36594      306.25757      288.97236      301.41111      40676.107      25340.597      44           
    861000  -7829.1779      112.00153     -7941.1795      0.61640401     222.23174      345.41304      304.14621      298.72456      297.81392      40262.779      25083.099      43           
    862000  -7827.0835      113.07914     -7940.1626      0.61640401     224.36992      326.22155      298.83884      315.45566      298.23574      40965.608      25520.952      42           
    863000  -7831.7106      110.90488     -7942.6154      0.61640401     220.05578      347.75373      305.61279      287.40483      299.66097      40223.513      25058.638      50           
    864000  -7830.4438      112.19079     -7942.6345      0.61640401     222.60726      350.78405      303.98201      299.76155      297.0824       40924.702      25495.467      55           
    865000  -7827.6879      115.72867     -7943.4166      0.61640401     229.62708      379.6541       316.51849      307.74628      292.32252      40443.777      25195.859      50           
    866000  -7830.8563      111.40643     -7942.2627      0.61640401     221.05095      342.25996      300.77402      299.60927      294.79035      40347.225      25135.708      56           
    867000  -7828.6456      113.86238     -7942.5079      0.61640401     225.92401      326.28232      305.65825      311.5695       296.73728      40732.049      25375.448      41           
    868000  -7824.1427      113.79142     -7937.9342      0.61640401     225.78321      328.73781      303.08794      313.96102      299.54986      40287.337      25098.399      45           
    869000  -7828.8823      111.32788     -7940.2102      0.61640401     220.89508      367.09297      296.81389      302.10107      304.69941      40778.262      25404.237      41           
    870000  -7828.168       113.42679     -7941.5948      0.61640401     225.05971      323.00893      308.16338      302.09419      305.58088      40240.697      25069.343      61           
    871000  -7832.6423      110.20839     -7942.8507      0.61640401     218.67382      278.45146      294.97956      298.56549      311.4818       40744.776      25383.376      58           
    872000  -7829.6018      113.27166     -7942.8734      0.61640401     224.75192      285.07176      304.00006      308.44494      309.41847      40388.934      25161.692      63           
    873000  -7832.4296      108.80217     -7941.2318      0.61640401     215.88363      255.67336      294.16938      293.66012      299.4353       40673.242      25338.812      64           
    874000  -7830.4893      110.72064     -7941.2099      0.61640401     219.69021      320.84406      292.55009      307.40053      296.25025      40491.928      25225.856      60           
    875000  -7834.9636      108.19474     -7943.1583      0.61640401     214.67837      293.74792      286.41842      299.35214      295.00879      40572.601      25276.114      72           
    876000  -7834.1947      108.82353     -7943.0182      0.61640401     215.92599      290.18341      294.47498      291.34239      299.11015      40561.298      25269.073      64           
    877000  -7832.1415      112.16892     -7944.3104      0.61640401     222.56388      327.65147      299.04481      307.69184      297.91257      40469.231      25211.716      64           
    878000  -7833.3787      110.65842     -7944.0371      0.61640401     219.56676      333.83415      296.59158      298.52148      301.91745      40672.986      25338.653      68           
    879000  -7829.176       112.28079     -7941.4568      0.61640401     222.78583      327.54869      298.97878      307.62721      301.60875      40324.301      25121.427      69           
    880000  -7831.1317      112.03484     -7943.1665      0.61640401     222.29783      271.10581      302.44012      303.79571      303.62433      40552.414      25263.538      66           
    881000  -7828.4763      110.92892     -7939.4053      0.61640401     220.10347      304.22977      302.00082      295.05055      299.17759      40568.144      25273.337      72           
    882000  -7830.4446      111.48298     -7941.9275      0.61640401     221.20284      275.08122      305.15856      296.35173      299.79313      40622.981      25307.5        71           
    883000  -7830.5821      110.80524     -7941.3874      0.61640401     219.85808      288.46706      294.97487      307.12492      293.05965      40376.97       25154.239      80           
    884000  -7832.6975      108.74989     -7941.4474      0.61640401     215.77989      309.52069      291.46144      295.25169      294.33546      40670.233      25336.937      63           
    885000  -7829.7767      111.02427     -7940.801       0.61640401     220.29267      347.30414      295.32388      302.90903      300.93373      40559.603      25268.017      60           
    886000  -7832.0296      108.93814     -7940.9678      0.61640401     216.1534       277.44085      292.21685      295.3965       303.00805      40589.971      25286.935      63           
    887000  -7831.0562      110.35204     -7941.4083      0.61640401     218.95885      258.48535      296.70551      298.56323      311.4327       40432.393      25188.766      64           
    888000  -7829.6204      112.92081     -7942.5412      0.61640401     224.05576      279.0504       301.05775      309.70368      313.41707      40581.495      25281.655      66           
    889000  -7830.0972      113.22187     -7943.3191      0.61640401     224.65312      288.72898      304.43955      305.1695       317.59762      40640.297      25318.288      57           
    890000  -7830.55        112.42547     -7942.9755      0.61640401     223.07292      272.9127       296.7511       313.11268      311.80468      40474.031      25214.706      64           
    891000  -7832.0003      110.67284     -7942.6732      0.61640401     219.59536      265.08233      294.60247      303.54017      312.96756      40567.958      25273.221      70           
    892000  -7830.6023      110.8081      -7941.4104      0.61640401     219.86375      291.2191       298.11752      298.40211      309.25301      40449.764      25199.588      65           
    893000  -7833.0067      109.58482     -7942.5915      0.61640401     217.43654      297.62974      288.43614      305.35947      300.35094      40700.759      25355.954      63           
    894000  -7831.0937      110.71015     -7941.8038      0.61640401     219.66939      316.48211      290.1798       310.01966      300.22275      40441.42       25194.39       66           
    895000  -7833.8946      109.04914     -7942.9437      0.61640401     216.37366      294.48838      287.36619      302.05748      304.76568      40605.85       25296.828      64           
    896000  -7829.4959      112.01697     -7941.5128      0.61640401     222.26237      333.82253      302.77881      298.38232      307.78766      40392.578      25163.963      60           
    897000  -7828.3726      112.83951     -7941.2121      0.61640401     223.89444      341.88955      304.78268      300.70421      307.88503      40536.978      25253.922      71           
    898000  -7827.2993      111.03714     -7938.3364      0.61640401     220.31821      355.10053      299.90576      293.75917      306.56166      40448.471      25198.783      72           
    899000  -7827.072       112.80523     -7939.8772      0.61640401     223.82642      366.20036      302.76341      304.41859      296.96934      40580.775      25281.206      70           
    900000  -7831.7321      111.02194     -7942.7541      0.61640401     220.28806      352.99592      294.24151      303.65602      302.1317       40539.709      25255.623      64           
    901000  -7834.7465      109.0699      -7943.8164      0.61640401     216.41483      315.47229      286.23072      303.69515      299.83071      40317.491      25117.185      62           
    902000  -7829.5139      111.3106      -7940.8245      0.61640401     220.86081      277.60691      302.83505      296.9059       304.39247      40750.777      25387.115      56           
    903000  -7827.5263      110.42589     -7937.9522      0.61640401     219.10537      280.62809      295.47425      301.46097      302.64417      40484.872      25221.46       54           
    904000  -7832.4546      110.11174     -7942.5664      0.61640401     218.48204      319.65323      295.41946      297.64041      300.84357      40555.237      25265.296      53           
    905000  -7832.1247      106.63407     -7938.7588      0.61640401     211.58171      249.73517      287.33261      287.5997       300.00637      40516.106      25240.919      61           
    906000  -7829.3683      109.58275     -7938.951       0.61640401     217.43243      359.49465      292.76713      297.26899      292.39587      40663.498      25332.742      59           
    907000  -7828.3919      111.5787      -7939.9706      0.61640401     221.39276      267.88574      300.0334       303.47241      304.83686      40313.166      25114.49       55           
    908000  -7826.0844      114.2349      -7940.3193      0.61640401     226.66317      332.03386      312.58655      301.24408      305.21508      40486.141      25222.251      56           
    909000  -7831.8931      110.45089     -7942.344       0.61640401     219.15498      315.15007      295.13343      299.02946      308.30448      40556.463      25266.06       49           
    910000  -7826.6473      114.78326     -7941.4305      0.61640401     227.75121      298.4624       306.36723      316.30114      305.67615      40483.928      25220.872      50           
    911000  -7826.0178      113.85404     -7939.8718      0.61640401     225.90747      290.37435      311.72638      301.97323      304.7882       40852.252      25450.333      54           
    912000  -7823.0319      114.8689      -7937.9008      0.61640401     227.92112      318.35032      315.19108      302.06993      308.68996      40448.4        25198.739      51           
    913000  -7825.0137      111.66998     -7936.6836      0.61640401     221.57388      318.33888      308.41421      289.27932      303.99011      40531.589      25250.564      51           
    914000  -7831.8761      106.79113     -7938.6672      0.61640401     211.89334      279.17973      285.10241      289.29404      303.47621      40432.956      25189.118      49           
    915000  -7827.948       110.14495     -7938.093       0.61640401     218.54794      329.12754      290.91392      302.99439      305.51038      40565.043      25271.405      48           
    916000  -7824.092       115.38443     -7939.4764      0.61640401     228.94404      324.97915      312.84102      309.29056      308.97031      40378.88       25155.429      36           
    917000  -7830.4702      109.79075     -7940.2609      0.61640401     217.84514      320.30965      289.81746      302.41486      306.21864      40655.56       25327.796      39           
    918000  -7831.282       109.89261     -7941.1746      0.61640401     218.04725      308.26112      296.77568      293.46344      305.20183      40321.378      25119.606      43           
    919000  -7831.8211      109.7292      -7941.5503      0.61640401     217.72301      293.69613      289.49182      304.77944      300.96263      40560.247      25268.418      45           
    920000  -7828.1016      112.40081     -7940.5025      0.61640401     223.02399      284.08235      300.29607      310.34208      296.70845      40701.491      25356.411      48           
    921000  -7829.5746      109.12932     -7938.704       0.61640401     216.53274      282.40356      299.31601      287.17418      297.19086      40393.804      25164.726      51           
    922000  -7828.4657      110.42523     -7938.891       0.61640401     219.10407      292.93951      293.33103      305.78872      295.303        40607.881      25298.093      43           
    923000  -7828.7433      112.76543     -7941.5087      0.61640401     223.74746      328.85142      302.02482      308.05474      298.73156      40512.866      25238.9        44           
    924000  -7828.9405      111.35212     -7940.2926      0.61640401     220.94319      262.99404      299.80718      303.71455      297.05017      40540.253      25255.962      38           
    925000  -7832.5002      109.51114     -7942.0113      0.61640401     217.29035      349.67958      290.92219      300.78144      294.69776      40506.058      25234.659      35           
    926000  -7833.3394      108.02196     -7941.3614      0.61640401     214.33553      288.23991      288.10898      294.45946      300.18412      40662.456      25332.092      46           
    927000  -7832.8789      108.77974     -7941.6586      0.61640401     215.83912      269.39241      293.71208      293.2698       298.17089      40385.7        25159.678      51           
    928000  -7831.4718      111.15845     -7942.6302      0.61640401     220.55892      306.24799      301.39542      297.52503      299.98349      40681.161      25343.745      44           
    929000  -7830.2754      109.81982     -7940.0952      0.61640401     217.90283      317.128        290.93548      302.01285      301.78216      40592.795      25288.695      50           
    930000  -7828.1445      113.94673     -7942.0912      0.61640401     226.09137      261.4229       305.66246      312.78354      307.5595       40425.359      25184.384      60           
    931000  -7827.4974      112.58972     -7940.0871      0.61640401     223.39881      314.49035      300.86582      306.17375      309.53362      40648.439      25323.36       61           
    932000  -7831.0571      110.57765     -7941.6348      0.61640401     219.40649      320.6051       300.90354      291.83638      304.78211      40373.38       25152.002      58           
    933000  -7832.2361      108.21617     -7940.4523      0.61640401     214.72089      322.98914      292.27099      287.04706      303.81747      40605.374      25296.531      58           
    934000  -7825.7145      113.31496     -7939.0294      0.61640401     224.83782      305.18396      310.21281      300.61013      299.92051      40550.817      25262.543      49           
    935000  -7828.8929      110.96226     -7939.8552      0.61640401     220.16963      371.90214      300.74782      292.89852      301.29931      40507.357      25235.468      59           
    936000  -7831.8177      109.34673     -7941.1645      0.61640401     216.96412      312.53287      298.3442       286.05546      307.83107      40294.009      25102.555      59           
    937000  -7827.0568      112.98186     -7940.0387      0.61640401     224.17689      317.93709      301.11352      308.01893      312.00329      40861.501      25456.095      55           
    938000  -7827.6318      110.35645     -7937.9882      0.61640401     218.96759      304.98299      295.66712      296.50443      314.37032      40378.196      25155.003      55           
    939000  -7828.1556      113.65572     -7941.8114      0.61640401     225.51395      259.36798      306.73866      306.63397      318.54324      40599.912      25293.129      64           
    940000  -7825.2156      116.12278     -7941.3384      0.61640401     230.40906      330.21841      310.94934      313.91929      321.50788      40513.528      25239.313      65           
    941000  -7827.5196      112.21217     -7939.7318      0.61640401     222.64969      291.07973      300.04876      305.54475      311.12301      40463.521      25208.159      62           
    942000  -7829.5788      110.72608     -7940.3049      0.61640401     219.70101      339.67626      291.64527      304.07354      310.49751      40615.888      25303.081      63           
    943000  -7828.5735      110.69431     -7939.2678      0.61640401     219.63797      330.33219      292.79396      304.17862      304.83389      40475.986      25215.924      60           
    944000  -7829.1324      109.73443     -7938.8668      0.61640401     217.73339      327.93747      294.92076      294.27389      302.24814      40596.962      25291.291      69           
    945000  -7826.9759      110.43356     -7937.4095      0.61640401     219.12059      321.80759      295.23451      300.63782      298.5465       40474.018      25214.698      58           
    946000  -7828.7956      111.39889     -7940.1945      0.61640401     221.03598      319.41238      301.9461       296.50361      304.93655      40466.234      25209.849      57           
    947000  -7824.0686      113.96065     -7938.0293      0.61640401     226.119        284.13539      311.15533      301.63657      315.63379      40327.159      25123.207      66           
    948000  -7827.584       114.34152     -7941.9255      0.61640401     226.8747       310.96716      304.89719      310.58232      322.41376      40618.457      25304.682      72           
    949000  -7829.1359      112.99906     -7942.1349      0.61640401     224.21103      325.70363      306.6008       296.32606      324.2836       40581.592      25281.715      81           
    950000  -7828.8205      111.17358     -7939.9941      0.61640401     220.58894      283.39259      304.6612       290.35366      317.03964      40239.353      25068.506      78           
    951000  -7833.2207      108.99125     -7942.212       0.61640401     216.25879      297.96711      289.28146      295.753        316.24384      40735.128      25377.366      66           
    952000  -7829.1702      111.79365     -7940.9639      0.61640401     221.81927      285.94276      305.94592      292.67193      316.44079      40396.008      25166.099      62           
    953000  -7824.1935      115.01733     -7939.2108      0.61640401     228.21565      307.54397      315.47786      303.34652      308.59812      40692.052      25350.53       63           
    954000  -7826.8155      111.44943     -7938.2649      0.61640401     221.13628      264.8282       304.35204      294.37022      313.9278       40407.756      25173.418      64           
    955000  -7827.4405      111.74488     -7939.1854      0.61640401     221.7225       340.91852      298.04843      302.3359       311.26743      40582.463      25282.258      52           
    956000  -7827.4841      111.80515     -7939.2892      0.61640401     221.84208      307.92966      293.67103      310.41961      313.27322      40359.681      25143.468      51           
    957000  -7827.2095      113.20274     -7940.4122      0.61640401     224.61515      314.11423      306.70543      300.3918       316.63852      40545.877      25259.466      56           
    958000  -7831.7847      109.41164     -7941.1963      0.61640401     217.09292      282.59162      294.72743      288.50703      327.69166      40590.435      25287.224      49           
    959000  -7830.9991      109.78255     -7940.7817      0.61640401     217.82887      314.29266      295.09502      289.50181      326.2148       40535.599      25253.062      53           
    960000  -7828.8182      110.9638      -7939.782       0.61640401     220.17269      330.40538      300.8498       290.4043       320.87929      40809.334      25423.595      52           
    961000  -7825.6943      113.69933     -7939.3936      0.61640401     225.60049      281.2192       310.06231      298.10056      326.72451      40268.805      25086.854      49           
    962000  -7826.6833      113.62795     -7940.3113      0.61640401     225.45886      318.06686      310.24875      295.58605      326.69671      40602.402      25294.68       43           
    963000  -7826.7488      114.32785     -7941.0766      0.61640401     226.84759      314.07787      301.0533       315.57439      323.15968      40577.466      25279.145      45           
    964000  -7827.063       112.87687     -7939.9399      0.61640401     223.96857      295.47341      303.6027       301.31576      324.67226      40595.112      25290.138      46           
    965000  -7825.2129      111.54072     -7936.7537      0.61640401     221.31741      241.39039      295.30547      305.88062      325.81102      40564.683      25271.181      49           
    966000  -7832.5545      109.42043     -7941.975       0.61640401     217.11035      278.40331      283.5701       304.59424      329.42796      40509.444      25236.768      40           
    967000  -7826.4134      115.09716     -7941.5105      0.61640401     228.37404      298.84888      308.252        308.54044      333.97781      40591.841      25288.1        48           
    968000  -7824.8285      116.42375     -7941.2522      0.61640401     231.00624      297.54662      309.1912       316.07275      337.97685      40380.747      25156.592      43           
    969000  -7827.088       110.92057     -7938.0085      0.61640401     220.08691      310.32931      293.69676      298.79669      332.26296      40623.317      25307.709      48           
    970000  -7828.4629      111.75039     -7940.2133      0.61640401     221.73343      319.46888      297.57449      300.19707      327.3176       40507.93       25235.825      45           
    971000  -7826.8592      112.54418     -7939.4034      0.61640401     223.30845      292.74742      308.66999      292.77483      319.70908      40591.023      25287.591      51           
    972000  -7824.2039      112.75225     -7936.9561      0.61640401     223.72131      312.98972      301.83281      305.15422      313.40012      40494.597      25227.519      48           
    973000  -7825.5756      112.9276      -7938.5032      0.61640401     224.06924      295.25203      311.66844      294.2412       307.072        40451.999      25200.981      49           
    974000  -7827.097       111.13603     -7938.233       0.61640401     220.51442      277.68736      295.76124      302.70066      316.4668       40441.48       25194.428      42           
    975000  -7827.4752      112.28656     -7939.7618      0.61640401     222.79729      273.19726      300.44583      303.51875      320.96487      40554.51       25264.843      43           
    976000  -7826.8993      113.62602     -7940.5253      0.61640401     225.45502      296.37627      298.43947      316.31238      318.29536      40472.386      25213.682      46           
    977000  -7827.0274      113.17179     -7940.1992      0.61640401     224.55374      305.71591      299.93249      309.13932      322.51198      40556.335      25265.981      40           
    978000  -7830.6255      111.6678      -7942.2933      0.61640401     221.56955      290.96454      301.02213      297.11079      321.06901      40759.153      25392.333      41           
    979000  -7828.3082      110.47777     -7938.786       0.61640401     219.20832      279.48681      297.21192      295.40227      317.75693      40368.202      25148.777      48           
    980000  -7831.8901      110.50749     -7942.3976      0.61640401     219.26728      356.51442      301.14276      288.38163      310.45989      40674.682      25339.709      41           
    981000  -7828.435       110.30197     -7938.737       0.61640401     218.8595       272.58597      288.11412      311.32801      304.1158       40385.851      25159.772      47           
    982000  -7824.7462      113.2223      -7937.9685      0.61640401     224.65397      321.45915      306.90117      303.27969      302.80883      40638.834      25317.376      55           
    983000  -7829.1869      112.89691     -7942.0838      0.61640401     224.00833      337.9901       305.09583      300.93244      310.20956      40515.896      25240.788      53           
    984000  -7829.6416      111.2597      -7940.9013      0.61640401     220.75982      301.88378      308.67446      283.27729      317.59444      40512.549      25238.703      55           
    985000  -7828.4109      113.39879     -7941.8097      0.61640401     225.00415      280.11188      304.33985      305.16962      325.01941      40466.351      25209.922      57           
    986000  -7830.7298      110.58272     -7941.3125      0.61640401     219.41656      302.6865       287.02471      308.6156       324.7517       40659.743      25330.402      49           
    987000  -7829.148       111.79588     -7940.9439      0.61640401     221.82369      308.08258      301.32871      296.50207      323.08639      40494.793      25227.641      53           
    988000  -7824.5699      115.05379     -7939.6237      0.61640401     228.28799      296.72699      312.27016      306.429        318.44078      40545.617      25259.304      51           
    989000  -7827.2584      113.13377     -7940.3922      0.61640401     224.47831      291.9367       304.46356      305.31033      312.91041      40752.782      25388.364      56           
    990000  -7827.4297      111.36822     -7938.7979      0.61640401     220.97513      293.4909       304.14644      292.85164      310.57671      40519.536      25243.055      46           
    991000  -7825.6359      110.32811     -7935.964       0.61640401     218.91137      367.33211      288.8727       305.1613       307.65352      40592.173      25288.307      49           
    992000  -7822.7615      113.42569     -7936.1872      0.61640401     225.05754      285.43005      305.24397      306.00402      314.95209      40590.23       25287.097      47           
    993000  -7827.6163      111.3686      -7938.9848      0.61640401     220.97588      278.65225      296.65003      303.11551      318.05197      40541.469      25256.719      55           
    994000  -7828.9343      111.48351     -7940.4178      0.61640401     221.2039       300.48983      300.13123      295.43021      326.95059      40347.552      25135.912      52           
    995000  -7829.8074      109.94703     -7939.7544      0.61640401     218.15523      329.00075      292.92501      292.62147      330.04293      40695.187      25352.484      51           
    996000  -7827.1459      112.6873      -7939.8332      0.61640401     223.59244      312.09604      299.62274      304.07973      328.98231      40521.076      25244.015      43           
    997000  -7820.8527      116.07006     -7936.9228      0.61640401     230.30445      358.82237      314.77797      309.02397      312.73112      40325.81       25122.367      45           
    998000  -7825.3409      113.59107     -7938.932       0.61640401     225.38568      302.25246      315.09259      293.33907      308.49333      40770.176      25399.2        42           
    999000  -7828.5523      111.41582     -7939.9681      0.61640401     221.06958      309.40891      307.01803      289.07254      307.32747      40632.279      25313.292      42           
   1000000  -7824.421       113.38261     -7937.8036      0.61640401     224.97205      312.01747      308.38038      301.29255      309.04696      40712.023      25362.972      42           
   1001000  -7825.2184      111.29767     -7936.516       0.61640401     220.83516      339.24572      298.07585      297.8009       316.71257      40353.554      25139.651      46           
   1002000  -7824.7436      112.39563     -7937.1393      0.61640401     223.01371      290.21886      296.64176      308.43069      323.98014      40672.57       25338.394      40           
   1003000  -7826.5251      112.3987      -7938.9238      0.61640401     223.0198       329.63045      296.38567      305.64385      330.23205      40588.809      25286.211      41           
   1004000  -7830.9288      110.75926     -7941.688       0.61640401     219.76683      319.12265      297.43381      292.72647      327.98391      40603.615      25295.435      44           
   1005000  -7833.3804      109.24196     -7942.6223      0.61640401     216.75625      391.71653      290.23682      289.56397      326.2922       40533.386      25251.684      42           
   1006000  -7827.6687      113.20197     -7940.8706      0.61640401     224.61363      393.34173      303.15386      301.65655      319.05309      40531.168      25250.302      45           
   1007000  -7826.6016      111.54937     -7938.151       0.61640401     221.33457      336.50365      296.35084      301.14785      320.43583      40603.793      25295.546      57           
   1008000  -7827.2645      112.84593     -7940.1104      0.61640401     223.90718      312.14558      301.66992      303.78516      322.71087      40418.374      25180.033      59           
   1009000  -7826.0025      113.19436     -7939.1968      0.61640401     224.59853      312.12521      304.21508      302.22804      324.43625      40582.76       25282.443      53           
   1010000  -7829.1512      110.42285     -7939.5741      0.61640401     219.09934      253.69775      296.85914      293.15526      332.89485      40563.727      25270.586      53           
   1011000  -7827.1549      111.63904     -7938.7939      0.61640401     221.51249      294.63846      300.71211      296.90752      324.02547      40637.613      25316.615      60           
   1012000  -7826.7356      110.89311     -7937.6287      0.61640401     220.03242      327.58539      297.38626      295.13917      320.03492      40315.149      25115.725      67           
   1013000  -7827.411       112.36274     -7939.7737      0.61640401     222.94845      353.14542      305.71547      293.40156      315.29234      40362.781      25145.399      66           
   1014000  -7827.441       112.79533     -7940.2363      0.61640401     223.80678      300.06344      299.49886      308.77382      316.71805      40628.164      25310.729      61           
   1015000  -7830.4086      111.80947     -7942.2181      0.61640401     221.85065      371.49236      297.60722      300.52059      317.10998      40356.599      25141.548      52           
   1016000  -7828.4906      111.63269     -7940.1233      0.61640401     221.49988      286.89006      298.69085      301.12879      320.10113      40622.044      25306.916      59           
   1017000  -7830.0232      111.75094     -7941.7741      0.61640401     221.73453      320.7          310.99966      283.31949      314.10905      40418.752      25180.268      60           
   1018000  -7825.6058      111.92761     -7937.5334      0.61640401     222.08507      291.72895      296.23104      307.65846      316.29193      40600.605      25293.56       56           
   1019000  -7828.4106      111.15032     -7939.5609      0.61640401     220.54278      268.18373      303.06242      290.11466      328.49863      40334.094      25127.528      60           
   1020000  -7828.3643      112.47225     -7940.8366      0.61640401     223.16574      295.50822      304.27334      298.2886       322.31997      40773.385      25401.199      66           
   1021000  -7833.1444      107.93603     -7941.0804      0.61640401     214.16503      325.16828      286.68254      291.18156      311.10714      40351.692      25138.491      66           
   1022000  -7829.1483      110.77079     -7939.9191      0.61640401     219.78972      353.83337      287.66351      308.94516      311.86454      40390.627      25162.747      66           
   1023000  -7832.8322      108.73324     -7941.5655      0.61640401     215.74684      359.90466      286.42947      297.63108      303.64902      40642.158      25319.447      57           
   1024000  -7827.6607      112.32935     -7939.9901      0.61640401     222.88218      366.84983      294.09293      313.41337      297.97919      40448.198      25198.613      70           
   1025000  -7832.1844      109.07465     -7941.259       0.61640401     216.42426      400.08644      295.00699      286.48978      297.84127      40596.313      25290.887      59           
   1026000  -7827.7684      113.76442     -7941.5329      0.61640401     225.72964      344.80495      302.28441      313.17684      301.86206      40382.91       25157.939      57           
   1027000  -7825.0284      111.56644     -7936.5948      0.61640401     221.36845      404.2547       297.82389      298.26752      309.78924      40548.479      25261.086      55           
   1028000  -7826.4563      113.48383     -7939.9401      0.61640401     225.17289      341.49904      302.26056      309.264        310.89849      40415.658      25178.341      50           
   1029000  -7823.9156      116.02479     -7939.9404      0.61640401     230.21463      315.47553      313.04505      313.33474      311.82861      40720.919      25368.514      52           
   1030000  -7827.6685      111.39145     -7939.0599      0.61640401     221.02123      316.93881      299.92192      298.09467      310.75169      40301.346      25107.126      58           
   1031000  -7826.1537      112.73508     -7938.8888      0.61640401     223.68723      335.23674      306.21612      297.92259      311.87924      40455.213      25202.983      45           
   1032000  -7826.2124      113.42191     -7939.6343      0.61640401     225.05004      366.30436      305.70616      303.23374      309.11327      40685.076      25346.184      45           
   1033000  -7828.9782      111.08413     -7940.0623      0.61640401     220.41145      298.52225      299.86056      297.09922      309.76185      40519.963      25243.322      47           
   1034000  -7830.2139      111.09463     -7941.3086      0.61640401     220.43229      396.22924      294.32031      302.04674      306.27624      40572.761      25276.214      46           
   1035000  -7829.6098      109.13363     -7938.7434      0.61640401     216.54129      392.62929      292.74891      290.53651      302.22378      40485.358      25221.763      49           
   1036000  -7827.9704      112.97471     -7940.9451      0.61640401     224.16271      372.53871      306.24566      300.56849      300.55297      40449.627      25199.503      51           
   1037000  -7824.2168      113.71868     -7937.9355      0.61640401     225.63888      349.28886      304.82877      308.80698      302.39097      40421.897      25182.228      54           
   1038000  -7828.1333      111.93057     -7940.0639      0.61640401     222.09095      309.13801      308.92744      290.78826      304.56624      40753.906      25389.064      48           
   1039000  -7826.2477      110.9879      -7937.2356      0.61640401     220.22051      263.74259      303.36847      295.00003      300.08426      40366.099      25147.467      43           
   1040000  -7828.8328      112.19109     -7941.0239      0.61640401     222.60786      309.34713      302.43622      304.76278      295.24932      40912.371      25487.786      44           
   1041000  -7830.5694      108.60758     -7939.177       0.61640401     215.49752      292.98327      291.54872      296.13686      289.83115      40342.384      25132.693      54           
   1042000  -7828.3974      110.54642     -7938.9438      0.61640401     219.34453      370.59144      297.80389      296.33657      294.70823      40492.984      25226.514      52           
   1043000  -7826.6741      112.22743     -7938.9016      0.61640401     222.67997      394.3429       302.95294      299.65111      298.4567       40680.895      25343.579      47           
   1044000  -7829.4414      112.48301     -7941.9244      0.61640401     223.18709      380.17556      298.30018      307.80076      302.36922      40448.153      25198.585      52           
   1045000  -7827.1401      110.17932     -7937.3194      0.61640401     218.61615      344.01525      291.44122      301.19764      307.35859      40726.741      25372.141      53           
   1046000  -7825.1253      112.2056      -7937.3309      0.61640401     222.63665      324.27308      303.10564      299.91306      307.15378      40448.843      25199.015      65           
   1047000  -7826.1121      112.33259     -7938.4447      0.61640401     222.88863      336.29193      305.93137      296.27331      306.84853      40751.082      25387.305      55           
   1048000  -7824.8645      111.94766     -7936.8122      0.61640401     222.12485      289.66941      302.56809      301.54405      303.88055      40418.197      25179.923      53           
   1049000  -7831.664       109.55518     -7941.2192      0.61640401     217.37774      271.75617      295.98473      294.86695      301.87856      40762.367      25394.335      57           
   1050000  -7830.3368      110.0679      -7940.4047      0.61640401     218.39505      316.47571      293.60692      301.05852      296.09474      40279.403      25093.456      66           
   1051000  -7829.683       111.10311     -7940.7862      0.61640401     220.4491       264.85503      298.89325      303.8643       296.22092      40598.346      25292.153      55           
   1052000  -7834.4924      109.04677     -7943.5392      0.61640401     216.36896      336.33682      298.62434      285.05364      295.54408      40561.01       25268.893      59           
   1053000  -7829.4582      111.77784     -7941.236       0.61640401     221.7879       337.72628      300.42939      302.0495       298.28684      40541.341      25256.64       62           
   1054000  -7832.3392      110.42257     -7942.7617      0.61640401     219.09878      305.72842      299.49764      293.9847       303.058        40610.215      25299.547      66           
   1055000  -7829.7187      110.66349     -7940.3822      0.61640401     219.57683      284.29007      294.23871      305.37197      301.72461      40461.63       25206.981      70           
   1056000  -7830.0561      110.46162     -7940.5177      0.61640401     219.17626      257.8513       292.08741      310.73056      293.56751      40777.434      25403.722      70           
   1057000  -7830.1359      109.59259     -7939.7284      0.61640401     217.45196      254.94062      297.37363      296.93378      290.06253      40270.618      25087.983      60           
   1058000  -7830.2644      108.88922     -7939.1536      0.61640401     216.05634      274.09136      289.27722      303.3585       287.37767      40720.151      25368.035      65           
   1059000  -7833.5383      107.46379     -7941.0021      0.61640401     213.22802      252.0913       293.99098      287.46518      285.87497      40208.416      25049.232      68           
   1060000  -7833.7366      108.42014     -7942.1568      0.61640401     215.1256       327.46851      286.10166      301.85924      282.36672      40618.872      25304.94       78           
   1061000  -7831.2492      110.01406     -7941.2633      0.61640401     218.28823      310.71364      298.83671      294.4208       290.92245      40515.906      25240.794      68           
   1062000  -7829.892       111.1995      -7941.0915      0.61640401     220.64035      309.01906      299.28452      300.75562      299.46879      40719.271      25367.487      70           
   1063000  -7829.4266      108.69983     -7938.1264      0.61640401     215.68056      281.35636      288.72966      298.60498      303.0728       40523.285      25245.391      67           
   1064000  -7830.7227      112.41831     -7943.1411      0.61640401     223.05871      294.58561      301.64378      307.43319      299.20456      40294.312      25102.744      68           
   1065000  -7833.5562      109.17778     -7942.734       0.61640401     216.62889      302.62672      296.4752       290.84143      296.40874      40685.508      25346.453      74           
   1066000  -7828.9149      108.34256     -7937.2575      0.61640401     214.97167      335.10745      292.26397      291.17297      284.54145      40492.619      25226.286      76           
   1067000  -7828.8261      110.99949     -7939.8256      0.61640401     220.2435       335.85851      305.69701      291.12844      286.37012      40646.567      25322.194      65           
   1068000  -7828.1407      108.24975     -7936.3905      0.61640401     214.78751      312.54921      282.4028       305.5257       291.3528       40286.904      25098.129      61           
   1069000  -7827.9332      111.59835     -7939.5316      0.61640401     221.43176      337.0519       299.9579       303.08833      291.0147       40731.817      25375.303      65           
   1070000  -7833.9464      109.23042     -7943.1769      0.61640401     216.73334      302.70256      291.47167      296.70512      305.02137      40594.486      25289.748      58           
   1071000  -7831.8582      108.88031     -7940.7385      0.61640401     216.03865      297.85219      293.83901      292.03232      299.80432      40444.709      25196.439      49           
   1072000  -7827.1871      113.60864     -7940.7957      0.61640401     225.42054      262.09328      306.54043      309.36999      302.49635      40686.712      25347.203      41           
   1073000  -7827.992       113.69886     -7941.6909      0.61640401     225.59955      370.90693      303.51012      311.30231      294.70747      40366.133      25147.488      55           
   1074000  -7825.7989      114.21634     -7940.0152      0.61640401     226.62632      322.23276      308.89796      309.9313       293.64621      40680.886      25343.574      60           
   1075000  -7829.1278      109.11404     -7938.2419      0.61640401     216.50242      318.67111      298.18723      288.43734      289.68168      40147.535      25011.304      68           
   1076000  -7825.3963      112.98029     -7938.3766      0.61640401     224.17379      287.97459      300.83753      315.26526      290.83024      40711.633      25362.729      63           
   1077000  -7828.5854      110.37125     -7938.9566      0.61640401     218.99697      283.60367      297.4939       300.95869      290.50809      40461.296      25206.773      63           
   1078000  -7827.6937      112.86702     -7940.5607      0.61640401     223.94903      267.61858      309.19096      301.98536      294.55024      40652.208      25325.708      53           
   1079000  -7828.7782      112.38232     -7941.1606      0.61640401     222.98729      334.41802      303.47408      304.0759       291.28947      40656.987      25328.685      59           
   1080000  -7826.4938      112.61744     -7939.1112      0.61640401     223.45382      284.10182      301.93974      310.10288      294.18213      40441.196      25194.25       47           
   1081000  -7827.7637      110.468       -7938.2317      0.61640401     219.18892      277.71103      299.52767      296.27948      300.52041      40649.629      25324.101      49           
   1082000  -7828.4165      112.27155     -7940.6881      0.61640401     222.76751      254.02533      300.74678      308.73499      303.06657      40285.06       25096.98       54           
   1083000  -7828.9238      109.59155     -7938.5153      0.61640401     217.44989      326.94829      304.4507       279.84027      300.62433      40855.826      25452.559      57           
   1084000  -7829.7278      113.00622     -7942.734       0.61640401     224.22523      353.14242      314.02343      292.07706      292.68025      40339.334      25130.792      52           
   1085000  -7829.4734      110.44566     -7939.9191      0.61640401     219.1446       308.77887      299.46004      297.97572      288.05878      40506.883      25235.173      47           
   1086000  -7831.1291      109.35934     -7940.4884      0.61640401     216.98915      265.20099      294.49838      299.24371      287.92507      40611.707      25300.477      50           
   1087000  -7832.6031      110.20072     -7942.8039      0.61640401     218.65861      329.02875      294.26469      303.13551      286.81449      40541.516      25256.748      50           
   1088000  -7828.1827      113.59068     -7941.7734      0.61640401     225.38491      333.86465      315.03178      293.78561      300.70716      40588.845      25286.234      58           
   1089000  -7826.0532      113.72168     -7939.7748      0.61640401     225.64484      296.84418      315.20738      295.71268      303.78613      40334.545      25127.809      55           
   1090000  -7825.2759      113.00741     -7938.2833      0.61640401     224.22759      262.05535      302.69019      310.17257      305.28143      40800.662      25418.193      48           
   1091000  -7829.2686      109.70791     -7938.9765      0.61640401     217.68078      288.5239       290.8741       301.8878       305.24015      40206.678      25048.149      61           
   1092000  -7831.9374      111.11382     -7943.0512      0.61640401     220.47035      283.00947      304.03078      293.56646      303.68496      40922.631      25494.178      58           
   1093000  -7825.5057      111.41462     -7936.9204      0.61640401     221.06719      268.02711      298.17233      306.78859      297.81986      40200.182      25044.102      57           
   1094000  -7829.1391      112.11604     -7941.2552      0.61640401     222.45895      300.29975      304.58193      300.1023       300.43986      40850.274      25449.1        64           
   1095000  -7830.0388      110.955       -7940.9938      0.61640401     220.15523      342.8604       301.52493      292.95144      300.81566      40307.693      25111.08       71           
   1096000  -7826.9563      112.35609     -7939.3124      0.61640401     222.93526      331.80039      303.11657      302.74435      298.03396      40511.848      25238.266      64           
   1097000  -7829.5712      112.16108     -7941.7323      0.61640401     222.54831      289.83524      300.86975      306.09165      302.61379      40659.332      25330.146      62           
   1098000  -7832.0579      108.89444     -7940.9523      0.61640401     216.06669      246.21834      289.5653       300.27966      302.64593      40456.768      25203.952      48           
   1099000  -7828.3211      111.4186      -7939.7397      0.61640401     221.07509      213.10478      306.06979      296.19187      302.83938      40726.22       25371.816      50           
   1100000  -7830.2306      110.93539     -7941.166       0.61640401     220.11632      252.49095      301.71178      297.58561      301.04304      40267.533      25086.061      49           
   1101000  -7827.1491      111.49227     -7938.6414      0.61640401     221.22127      310.20969      297.62131      305.63634      298.9848       40902.481      25481.624      55           
   1102000  -7827.8445      111.8091      -7939.6536      0.61640401     221.84993      310.02994      302.3074       300.32154      302.04107      40416.586      25178.919      51           
   1103000  -7828.9725      112.08232     -7941.0548      0.61640401     222.39205      280.80126      303.95612      300.93111      304.41892      40583.597      25282.964      59           
   1104000  -7831.9387      109.47674     -7941.4154      0.61640401     217.22208      287.36219      293.65616      295.45647      307.12703      40291.472      25100.975      47           
   1105000  -7829.0805      112.04316     -7941.1236      0.61640401     222.31433      305.42537      296.63224      307.97265      313.30892      40773.235      25401.106      52           
   1106000  -7830.3775      110.3822      -7940.7597      0.61640401     219.01868      311.61207      294.68619      298.91585      310.06619      40462.977      25207.82       43           
   1107000  -7828.3153      112.38404     -7940.6994      0.61640401     222.99071      299.76838      300.38801      305.35233      312.61585      40314.023      25115.024      49           
   1108000  -7826.1831      113.38227     -7939.5653      0.61640401     224.97137      356.8581       305.46312      302.99846      310.81423      40655.564      25327.799      51           
   1109000  -7828.6736      110.19873     -7938.8724      0.61640401     218.65465      294.12981      295.07634      298.50327      307.39179      40375.718      25153.459      55           
   1110000  -7826.8949      112.49189     -7939.3868      0.61640401     223.20469      282.89054      298.58728      308.72155      316.45564      40636.278      25315.784      51           
   1111000  -7827.7482      110.90213     -7938.6503      0.61640401     220.05033      301.13841      294.68027      300.1788       322.73803      40316.962      25116.855      55           
   1112000  -7826.5437      112.59026     -7939.1339      0.61640401     223.39989      327.33962      302.28613      299.94363      324.33491      40927.064      25496.939      52           
   1113000  -7828.4173      111.45514     -7939.8725      0.61640401     221.14761      326.89473      300.00766      296.36068      318.22272      40339.651      25130.989      47           
   1114000  -7824.7353      114.88977     -7939.625       0.61640401     227.96255      283.50211      314.17536      303.18056      318.52804      40648.082      25323.137      57           
   1115000  -7827.0405      110.16268     -7937.2031      0.61640401     218.58312      334.25524      303.99359      281.86243      310.812        40499.385      25230.502      58           
   1116000  -7830.7924      109.05741     -7939.8499      0.61640401     216.39006      305.23241      297.05155      285.70962      310.06403      40629.19       25311.368      53           
   1117000  -7827.405       110.98324     -7938.3883      0.61640401     220.21127      323.79579      298.76894      300.13091      295.04996      40515.014      25240.238      63           
   1118000  -7827.5434      111.31557     -7938.859       0.61640401     220.87066      281.84415      304.8056       295.64103      296.67075      40491.539      25225.613      55           
   1119000  -7828.9312      111.12554     -7940.0568      0.61640401     220.49362      292.66648      288.13762      316.401        305.87355      40904.514      25482.891      60           
   1120000  -7831.0039      110.73115     -7941.735       0.61640401     219.71106      343.34016      297.46542      294.99089      311.83135      40355.236      25140.699      63           
   1121000  -7826.4744      111.15332     -7937.6277      0.61640401     220.54874      297.94024      296.28857      301.04084      318.28626      40578.128      25279.557      60           
   1122000  -7827.6668      113.51496     -7941.1818      0.61640401     225.23466      299.75198      310.96203      298.21859      312.79777      40614.15       25301.999      63           
   1123000  -7831.3427      109.24854     -7940.5913      0.61640401     216.76929      307.86038      297.87686      286.78476      305.85344      40503.26       25232.916      59           
   1124000  -7828.5164      111.67741     -7940.1938      0.61640401     221.58863      323.22318      297.67962      305.40089      302.48029      40650.907      25324.898      55           
   1125000  -7829.1099      111.25007     -7940.36        0.61640401     220.7407       316.06102      307.82598      287.31226      302.81732      40444.377      25196.232      57           
   1126000  -7827.3872      111.53763     -7938.9248      0.61640401     221.31128      317.26667      294.60827      307.58604      309.6266       40524.519      25246.159      48           
   1127000  -7827.7457      112.74498     -7940.4907      0.61640401     223.70688      318.82792      302.65342      302.39835      318.31772      40449.236      25199.26       52           
   1128000  -7826.9001      113.28861     -7940.1887      0.61640401     224.78553      287.37099      303.95596      305.1499       322.87309      40519.48       25243.021      60           
   1129000  -7828.6879      111.08662     -7939.7745      0.61640401     220.41638      277.4785       304.15418      290.05631      318.42809      40460.29       25206.146      63           
   1130000  -7830.5238      111.21039     -7941.7342      0.61640401     220.66197      251.5438       305.75371      291.52109      312.89713      40688.261      25348.169      63           
   1131000  -7829.5035      110.51353     -7940.017       0.61640401     219.27928      281.17336      295.56506      301.61792      304.59902      40711.654      25362.742      62           
   1132000  -7830.0087      111.68004     -7941.6887      0.61640401     221.59383      305.18957      297.17737      307.65853      300.00707      40295.057      25103.208      64           
   1133000  -7827.6023      110.62717     -7938.2295      0.61640401     219.50475      266.41549      295.93145      304.25022      298.97148      40742.227      25381.789      65           
   1134000  -7829.7241      109.47271     -7939.1968      0.61640401     217.2141       285.84628      295.27922      294.22963      303.95775      40351.285      25138.237      71           
   1135000  -7828.2396      110.5548      -7938.7944      0.61640401     219.36116      265.1021       298.6459       297.17622      309.8304       40571.486      25275.419      65           
   1136000  -7828.1004      112.5281      -7940.6285      0.61640401     223.27654      275.78889      298.90606      310.15944      313.67411      40432.441      25188.797      70           
   1137000  -7829.1369      111.75482     -7940.8917      0.61640401     221.74221      232.86583      299.58109      305.721        312.72166      40830.873      25437.014      60           
   1138000  -7831.6085      110.28757     -7941.8961      0.61640401     218.83093      327.0684       287.33089      309.96459      302.97238      40466.616      25210.087      60           
   1139000  -7829.2963      109.43377     -7938.7301      0.61640401     217.13683      273.07442      288.36408      305.94057      298.95524      40386.295      25160.048      58           
   1140000  -7827.058       114.63335     -7941.6914      0.61640401     227.45376      307.22014      311.89088      308.34733      298.16848      40700.734      25355.939      60           
   1141000  -7828.603       111.50362     -7940.1066      0.61640401     221.24379      321.00952      302.54036      298.56055      295.70699      40451.946      25200.948      58           
   1142000  -7826.7036      113.31751     -7940.0211      0.61640401     224.84288      302.87662      307.0329       304.37944      304.50003      40594.21       25289.576      63           
   1143000  -7831.6118      109.89252     -7941.5044      0.61640401     218.04707      316.05391      297.66129      291.24905      306.3555       40215.45       25053.614      68           
   1144000  -7830.0986      110.02772     -7940.1264      0.61640401     218.31534      238.50565      298.6486       295.90296      304.87277      40918.442      25491.568      63           
   1145000  -7832.6088      110.92819     -7943.537       0.61640401     220.10204      252.23147      298.09042      304.19331      297.65992      40301.481      25107.21       58           
   1146000  -7827.0471      109.972       -7937.0191      0.61640401     218.20478      334.07979      290.58566      306.37407      285.58254      40768.736      25398.303      63           
   1147000  -7830.0745      110.32137     -7940.3959      0.61640401     218.898        321.67421      302.02943      292.05967      288.48603      40546.489      25259.847      60           
   1148000  -7830.818       111.17893     -7941.9969      0.61640401     220.59954      337.87493      311.30568      284.9233       284.36461      40378.932      25155.461      58           
   1149000  -7828.5151      109.56714     -7938.0822      0.61640401     217.40146      277.81363      297.47568      296.37893      285.70518      40801.478      25418.701      61           
   1150000  -7824.7451      110.93488     -7935.6799      0.61640401     220.1153       294.57649      297.82339      302.87509      295.29816      40230.136      25062.764      64           
   1151000  -7825.9305      113.20752     -7939.138       0.61640401     224.62464      283.27508      303.95922      310.31563      299.81347      40934.692      25501.691      57           
   1152000  -7830.1948      112.41792     -7942.6127      0.61640401     223.05793      293.47468      311.35455      291.99724      303.48325      40369.707      25149.714      66           
   1153000  -7826.8305      111.56018     -7938.3907      0.61640401     221.35602      324.77311      296.20002      307.09211      299.12423      40710.132      25361.794      70           
   1154000  -7824.7926      113.41928     -7938.2119      0.61640401     225.04481      272.41745      308.84136      308.33936      287.81578      40432.359      25188.746      65           
   1155000  -7829.3891      109.86603     -7939.2551      0.61640401     217.99451      292.73131      287.06217      312.24131      289.92239      40817.584      25428.735      67           
   1156000  -7827.1795      112.00664     -7939.1862      0.61640401     222.24188      327.49987      289.43898      321.72912      293.0715       40241.05       25069.563      70           
   1157000  -7826.531       111.00046     -7937.5315      0.61640401     220.24542      310.68271      295.31302      304.68363      301.3123       40403.68       25170.879      65           
   1158000  -7828.2794      112.86374     -7941.1432      0.61640401     223.94252      306.63028      301.07906      309.07319      306.79931      40754.647      25389.526      61           
   1159000  -7828.3964      111.94478     -7940.3411      0.61640401     222.11914      351.66699      302.02562      299.16997      303.00186      40548.945      25261.377      58           
   1160000  -7831.985       109.75842     -7941.7434      0.61640401     217.781        389.84049      291.36845      295.31701      308.82144      40703.262      25357.514      55           
   1161000  -7832.444       111.38118     -7943.8251      0.61640401     221.00084      351.87625      299.20987      299.1444       301.6071       40316.593      25116.625      64           
   1162000  -7829.9673      110.63269     -7940.6         0.61640401     219.51571      319.55968      292.67222      307.40518      292.84133      40558.412      25267.274      61           
   1163000  -7832.6169      108.43344     -7941.0504      0.61640401     215.15199      264.86203      286.10241      301.60752      301.56804      40389.935      25162.316      56           
   1164000  -7827.6004      111.01057     -7938.6109      0.61640401     220.26548      303.52184      303.09728      294.89053      296.00921      40504.029      25233.395      54           
   1165000  -7825.6327      113.70211     -7939.3348      0.61640401     225.606        289.77119      304.30798      314.59282      294.03728      40512.069      25238.403      58           
   1166000  -7831.8965      107.79414     -7939.6907      0.61640401     213.8835       320.16276      287.72657      292.07796      298.99635      40454.23       25202.371      55           
   1167000  -7831.5932      108.28326     -7939.8764      0.61640401     214.85401      324.73353      288.27685      292.39642      307.13477      40708.027      25360.482      65           
   1168000  -7827.8773      113.09223     -7940.9695      0.61640401     224.3959       324.63922      309.97597      293.86663      317.88801      40346.446      25135.223      54           
   1169000  -7834.5053      108.49231     -7942.9976      0.61640401     215.2688       266.16365      285.55205      297.7618       320.47883      40793.712      25413.863      46           
   1170000  -7834.4804      108.03292     -7942.5134      0.61640401     214.35729      270.79295      291.07028      287.37915      314.94844      40427.201      25185.532      51           
   1171000  -7826.0589      111.0632      -7937.1221      0.61640401     220.36991      263.5628       301.17383      296.52343      311.74882      40871.492      25462.319      57           
   1172000  -7828.4733      109.05945     -7937.5327      0.61640401     216.3941       326.07321      295.74725      289.0636       300.34457      40409.617      25174.578      51           
   1173000  -7826.5738      109.77995     -7936.3538      0.61640401     217.82371      275.00351      296.14725      296.91095      298.07443      40431.367      25188.127      50           
   1174000  -7828.4936      112.83923     -7941.3328      0.61640401     223.89389      327.46414      307.88097      299.75641      298.59129      40563.433      25270.402      51           
   1175000  -7827.3398      113.07793     -7940.4177      0.61640401     224.36752      321.75803      308.23046      299.00112      307.42828      40459.363      25205.569      60           
   1176000  -7826.9992      112.001       -7939.0002      0.61640401     222.23068      311.81041      307.78194      289.35652      319.10865      40659.271      25330.108      56           
   1177000  -7831.8791      108.35752     -7940.2366      0.61640401     215.00135      297.60563      292.13391      285.17258      322.89898      40507.229      25235.388      67           
   1178000  -7830.3557      110.77206     -7941.1278      0.61640401     219.79224      313.5934       295.26857      298.66657      318.81562      40618.584      25304.761      65           
   1179000  -7829.551       110.81245     -7940.3635      0.61640401     219.87238      362.52554      294.12386      299.02147      313.96764      40408.852      25174.101      62           
   1180000  -7829.8575      110.81664     -7940.6742      0.61640401     219.88069      304.82663      300.35134      294.76274      307.21791      40691.943      25350.463      66           
   1181000  -7825.3785      112.23385     -7937.6123      0.61640401     222.69271      323.68476      301.38962      304.02657      301.80837      40525.293      25246.642      63           
   1182000  -7830.7385      109.68155     -7940.42        0.61640401     217.62846      330.86777      293.36112      298.29421      293.02799      40550.122      25262.11       67           
   1183000  -7830.2316      109.95544     -7940.1871      0.61640401     218.17192      365.35121      297.46692      291.35101      296.73829      40605.32       25296.498      64           
   1184000  -7832.8242      109.37558     -7942.1998      0.61640401     217.02137      301.07623      281.57177      312.24469      306.52914      40233.781      25065.034      64           
   1185000  -7833.3327      111.0263      -7944.359       0.61640401     220.29671      274.38307      294.33048      305.03102      316.51168      40696.556      25353.336      65           
   1186000  -7832.9193      109.02169     -7941.941       0.61640401     216.31919      281.94136      286.31038      302.29236      313.03196      40627.229      25310.147      68           
   1187000  -7833.5655      109.18973     -7942.7553      0.61640401     216.65261      284.85007      291.8651       296.98636      304.61918      40385.41       25159.497      58           
   1188000  -7828.648       112.79795     -7941.4459      0.61640401     223.81199      270.32101      301.90957      310.5548       303.41169      40644.187      25320.711      70           
   1189000  -7832.0643      107.13686     -7939.2011      0.61640401     212.57934      263.77385      299.45387      273.90689      295.42389      40372.645      25151.545      70           
   1190000  -7828.475       112.34973     -7940.8247      0.61640401     222.92263      326.22692      308.24864      294.42408      301.10828      40645.93       25321.797      75           
   1191000  -7828.5029      110.33185     -7938.8348      0.61640401     218.91878      289.98273      303.55599      288.21252      303.29538      40368.659      25149.061      67           
   1192000  -7830.7221      110.4977      -7941.2198      0.61640401     219.24785      273.65423      297.83618      297.54912      309.82921      40775.314      25402.401      68           
   1193000  -7831.3558      111.81327     -7943.1691      0.61640401     221.85819      307.27652      299.0489       302.27458      315.02197      40449.749      25199.579      64           
   1194000  -7831.0732      112.29827     -7943.3714      0.61640401     222.82053      304.30977      302.40092      302.47434      308.95714      40840.569      25443.054      70           
   1195000  -7829.2471      109.46376     -7938.7109      0.61640401     217.19633      310.21307      293.63998      294.08243      307.73406      40452.842      25201.506      65           
   1196000  -7824.2493      114.31755     -7938.5669      0.61640401     226.82716      277.25255      312.73586      305.31809      302.98409      40629.626      25311.64       63           
   1197000  -7829.3194      111.20373     -7940.5232      0.61640401     220.64876      281.52203      305.10071      296.5587       288.47777      40647.914      25323.033      70           
   1198000  -7825.7168      113.29075     -7939.0075      0.61640401     224.78978      285.32607      308.61987      307.03725      287.27147      40279.866      25093.745      70           
   1199000  -7828.0244      110.95235     -7938.9767      0.61640401     220.14997      256.83355      299.50828      303.41502      294.79441      40625.69       25309.187      77           
   1200000  -7831.325       109.4603      -7940.7853      0.61640401     217.18948      249.78172      294.48536      298.17386      302.8          40248.035      25073.914      74           
   1201000  -7830.237       109.34465     -7939.5816      0.61640401     216.95999      273.93866      286.20734      306.29417      308.67432      40650.317      25324.53       63           
   1202000  -7827.5711      113.81343     -7941.3845      0.61640401     225.82689      337.88679      301.22932      312.3316       313.74799      40412.238      25176.21       67           
   1203000  -7831.2269      109.02526     -7940.2521      0.61640401     216.32627      310.30497      292.21026      288.86444      324.77334      40730.03       25374.19       70           
   1204000  -7826.7416      114.22338     -7940.965       0.61640401     226.64029      347.09689      314.05306      295.48656      314.82105      40497.674      25229.436      67           
   1205000  -7826.0889      113.74775     -7939.8367      0.61640401     225.69656      336.84122      306.69318      306.90206      300.707        40578.915      25280.048      65           
   1206000  -7828.6341      110.09572     -7938.7299      0.61640401     218.45027      328.76168      296.17027      299.22293      284.90221      40461.017      25206.599      68           
   1207000  -7824.5347      113.18332     -7937.718       0.61640401     224.57663      304.18207      304.04698      312.42834      284.85008      40323.433      25120.886      66           
   1208000  -7826.9818      113.912       -7940.8938      0.61640401     226.02247      317.81596      312.31466      304.08643      286.97295      40594.354      25289.666      73           
   1209000  -7830.5928      112.12964     -7942.7224      0.61640401     222.48594      257.62075      306.80866      299.78042      301.16461      40461.909      25207.155      74           
   1210000  -7826.4118      111.53098     -7937.9428      0.61640401     221.29807      261.79665      301.38491      300.16433      312.87235      40813.631      25426.272      70           
   1211000  -7829.8868      111.21335     -7941.1002      0.61640401     220.66785      301.32419      294.66622      302.59185      323.69346      40670.445      25337.069      66           
   1212000  -7827.1125      112.46736     -7939.5799      0.61640401     223.15603      289.92287      297.60277      308.71775      323.33211      40319.392      25118.369      81           
   1213000  -7829.8012      109.56214     -7939.3634      0.61640401     217.39155      288.97932      296.1416       290.35757      317.40955      40523.271      25245.382      74           
   1214000  -7831.7301      111.23437     -7942.9645      0.61640401     220.70955      310.08624      307.34435      287.87705      304.06487      40429.65       25187.058      69           
   1215000  -7828.7559      111.41818     -7940.174       0.61640401     221.07427      305.87637      301.74421      299.65267      296.62301      40741.287      25381.203      67           
   1216000  -7832.1313      109.83608     -7941.9674      0.61640401     217.93508      313.1913       295.4079       297.98392      291.52053      40366.708      25147.846      63           
   1217000  -7828.5706      112.57372     -7941.1443      0.61640401     223.36706      336.61724      308.645        297.17685      292.2941       40742.63       25382.04       66           
   1218000  -7829.3061      110.97758     -7940.2837      0.61640401     220.20003      280.13818      304.85742      291.20625      304.76148      40340.387      25131.448      58           
   1219000  -7832.7649      109.03659     -7941.8015      0.61640401     216.34874      341.54711      289.90334      291.9567       319.92125      40742.646      25382.049      53           
   1220000  -7827.5802      112.66404     -7940.2443      0.61640401     223.54627      276.00074      301.87227      303.24947      325.01431      40519.972      25243.327      51           
   1221000  -7829.7895      112.18104     -7941.9705      0.61640401     222.58793      286.05695      298.09147      304.93031      324.75362      40471.091      25212.875      52           
   1222000  -7832.3895      110.35175     -7942.7412      0.61640401     218.95827      274.55905      299.98938      293.52158      306.57123      40712.988      25363.573      54           
   1223000  -7831.1456      110.4604      -7941.606       0.61640401     219.17386      301.23047      297.57626      298.27031      299.55599      40430.154      25187.372      55           
   1224000  -7828.1038      113.85556     -7941.9594      0.61640401     225.91047      375.61794      309.31446      305.51383      285.35417      40593.857      25289.356      59           
   1225000  -7826.9395      109.85353     -7936.793       0.61640401     217.96972      293.9345       299.12712      296.40363      280.45973      40415.221      25178.068      56           
   1226000  -7831.5642      110.08315     -7941.6473      0.61640401     218.42532      278.53697      292.62069      306.99569      287.50895      40692.927      25351.075      58           
   1227000  -7830.1504      110.03694     -7940.1874      0.61640401     218.33362      367.80993      291.13476      302.53996      294.09618      40321.576      25119.729      55           
   1228000  -7828.1189      113.90084     -7942.0198      0.61640401     226.00032      300.50964      303.92652      311.11288      314.22104      40690.537      25349.586      58           
   1229000  -7831.3059      110.07612     -7941.382       0.61640401     218.41137      319.71364      283.52662      310.69849      318.416        40449.504      25199.427      56           
   1230000  -7830.1045      111.44905     -7941.5535      0.61640401     221.13551      326.46471      299.85987      297.12983      314.66581      40615.036      25302.55       60           
   1231000  -7832.1164      111.90022     -7944.0166      0.61640401     222.03072      343.85984      302.95079      296.57285      309.60369      40539.729      25255.635      50           
   1232000  -7830.1949      111.28873     -7941.4837      0.61640401     220.81742      341.66396      294.34882      306.98167      299.28362      40533.635      25251.839      61           
   1233000  -7828.159       111.47693     -7939.6359      0.61640401     221.19084      316.15938      300.76072      302.67745      290.18675      40534.848      25252.594      56           
   1234000  -7827.5982      111.47544     -7939.0736      0.61640401     221.18788      340.26566      293.93745      311.64959      289.02177      40301.829      25107.427      60           
   1235000  -7827.0671      112.90722     -7939.9743      0.61640401     224.02879      328.71835      309.33452      298.29939      297.5903       40746.682      25384.564      52           
   1236000  -7829.1133      110.60934     -7939.7227      0.61640401     219.46937      340.68564      303.27455      286.78553      307.61721      40440.807      25194.008      56           
   1237000  -7832.0588      111.79925     -7943.8581      0.61640401     221.83038      314.02807      299.3841       300.90208      315.84792      40632.606      25313.496      55           
   1238000  -7829.8673      111.81517     -7941.6824      0.61640401     221.86197      337.66678      299.45567      298.37958      321.44827      40435.926      25190.968      51           
   1239000  -7827.1383      113.80233     -7940.9406      0.61640401     225.80485      341.0208       303.3581       308.36584      318.08092      40535.041      25252.715      46           
   1240000  -7830.9482      109.55146     -7940.4997      0.61640401     217.37035      340.11838      292.62515      294.01902      311.67656      40681.18       25343.757      49           
   1241000  -7828.5885      111.96551     -7940.554       0.61640401     222.16027      308.34462      302.46151      301.4807       301.45851      40588.316      25285.905      54           
   1242000  -7831.1435      107.9629      -7939.1064      0.61640401     214.21834      312.83142      285.55352      296.85553      299.56537      40684.216      25345.649      51           
   1243000  -7829.0464      112.23415     -7941.2806      0.61640401     222.69329      298.6515       305.26351      301.08723      296.32365      40326.096      25122.545      60           
   1244000  -7829.8245      110.14875     -7939.9733      0.61640401     218.55549      276.83702      295.79777      301.3949       293.14064      40628.808      25311.13       53           
   1245000  -7831.0927      110.34374     -7941.4365      0.61640401     218.94237      284.3615       298.65857      295.41494      304.65454      40361.427      25144.556      56           
   1246000  -7828.946       111.83921     -7940.7852      0.61640401     221.90966      305.38927      300.36095      301.53077      310.66153      40691.394      25350.12       51           
   1247000  -7835.4977      108.62958     -7944.1272      0.61640401     215.54117      344.1124       298.45107      279.54828      305.17892      40608.523      25298.493      55           
   1248000  -7830.508       109.50009     -7940.0081      0.61640401     217.26843      345.53459      287.45595      303.80436      298.54263      40356.775      25141.658      60           
   1249000  -7826.922       111.49247     -7938.4144      0.61640401     221.22166      354.74384      302.07092      300.42114      283.29057      40672.09       25338.094      56           
   1250000  -7828.7083      111.23432     -7939.9427      0.61640401     220.70945      329.75839      297.5461       305.74514      286.67412      40245.227      25072.165      58           
   1251000  -7828.9804      110.35169     -7939.3321      0.61640401     218.95815      319.71739      300.80493      294.48637      288.70169      40712.508      25363.274      52           
   1252000  -7829.8913      110.67692     -7940.5683      0.61640401     219.60347      319.92249      300.56131      298.69161      282.6615       40329.804      25124.855      56           
   1253000  -7824.8715      111.61428     -7936.4858      0.61640401     221.46337      316.95614      303.39741      299.19178      293.32883      40630.947      25312.463      45           
   1254000  -7828.7671      111.30836     -7940.0755      0.61640401     220.85637      324.97558      302.43276      298.46817      290.5558       40311.724      25113.592      53           
   1255000  -7828.79        109.23317     -7938.0232      0.61640401     216.73879      348.17246      300.57517      283.5853       293.53137      40459.676      25205.763      55           
   1256000  -7828.799       110.69139     -7939.4904      0.61640401     219.63217      364.21904      296.3399       301.07113      287.65575      40606.128      25297.001      61           
   1257000  -7828.1653      111.91869     -7940.084       0.61640401     222.06737      333.21942      305.23         300.60017      282.60299      40527.035      25247.727      49           
   1258000  -7827.6004      110.7844      -7938.3848      0.61640401     219.81673      312.56248      305.87004      292.3531       280.51779      40786.579      25409.419      60           
   1259000  -7827.5707      110.83977     -7938.4105      0.61640401     219.92659      305.27453      303.65181      298.11415      274.11614      40244.31       25071.593      56           
   1260000  -7831.8829      108.84596     -7940.7289      0.61640401     215.9705       223.69744      297.69572      295.99871      275.377        40742.143      25381.736      54           
   1261000  -7832.3913      109.59893     -7941.9902      0.61640401     217.46454      291.00064      302.60581      291.08566      274.30226      40402.798      25170.33       59           
   1262000  -7829.9552      111.63466     -7941.5899      0.61640401     221.50379      237.84221      302.18216      308.74275      278.65212      40522.333      25244.798      54           
   1263000  -7828.6169      110.01928     -7938.6362      0.61640401     218.29858      242.60968      301.22261      294.72038      290.94832      40583.55       25282.935      55           
   1264000  -7829.5113      111.7174      -7941.2287      0.61640401     221.66797      373.57921      296.62864      310.89188      275.6621       40500.357      25231.107      58           
   1265000  -7830.8629      110.13769     -7941.0006      0.61640401     218.53352      381.77679      296.0445       298.0202       277.71477      40634.733      25314.821      68           
   1266000  -7829.6853      111.16936     -7940.8547      0.61640401     220.58056      346.02157      301.99206      298.63941      280.02877      40303.384      25108.396      69           
   1267000  -7828.4389      110.46496     -7938.9038      0.61640401     219.18289      390.18588      297.80205      298.19843      274.68732      40893.316      25475.915      65           
   1268000  -7829.1701      110.08297     -7939.253       0.61640401     218.42496      299.78848      300.24495      295.06992      284.78799      40136.316      25004.315      57           
   1269000  -7827.0333      110.6492      -7937.6825      0.61640401     219.54847      322.19959      299.61197      300.20784      279.88008      40948.146      25510.073      60           
   1270000  -7827.1928      109.87698     -7937.0698      0.61640401     218.01624      305.056        298.53209      297.70302      276.48783      40361.552      25144.634      60           
   1271000  -7829.1979      111.35853     -7940.5564      0.61640401     220.95591      300.34008      301.83828      305.00716      272.80328      40595.531      25290.399      64           
   1272000  -7833.8319      109.30464     -7943.1365      0.61640401     216.88062      324.13994      300.5363       290.80356      270.88247      40545.59       25259.286      59           
   1273000  -7830.2266      108.65281     -7938.8794      0.61640401     215.58725      301.69418      299.13642      288.18884      275.99889      40371.963      25151.119      51           
   1274000  -7830.1507      111.0551      -7941.2058      0.61640401     220.35385      285.64182      300.21587      304.45529      279.93764      40748.278      25385.558      55           
   1275000  -7832.1608      109.81329     -7941.9741      0.61640401     217.88987      305.36728      302.55239      291.12823      277.33663      40444.584      25196.361      57           
   1276000  -7831.3759      109.29478     -7940.6706      0.61640401     216.86104      311.42529      298.91489      291.57425      279.9758       40780.387      25405.562      57           
   1277000  -7827.9591      113.08786     -7941.047       0.61640401     224.38722      304.12829      309.44735      303.64948      285.03003      40148.972      25012.2        59           
   1278000  -7829.1215      111.44964     -7940.5712      0.61640401     221.13668      290.92016      300.00958      306.12363      285.12016      40751.296      25387.438      52           
   1279000  -7832.5286      107.91647     -7940.4451      0.61640401     214.12622      276.51142      298.38809      284.35375      278.67439      40315.833      25116.152      57           
   1280000  -7829.4791      109.06563     -7938.5448      0.61640401     216.40637      299.50961      288.80413      306.42644      276.7759       40781.336      25406.153      58           
   1281000  -7829.2418      110.72194     -7939.9638      0.61640401     219.6928       317.00922      305.2302       294.79297      270.72132      40518.531      25242.429      58           
   1282000  -7833.4398      107.16127     -7940.6011      0.61640401     212.62776      291.899        287.29877      297.84537      264.42929      40329.929      25124.933      55           
   1283000  -7830.1411      111.97424     -7942.1153      0.61640401     222.17759      315.87612      304.12405      306.53132      268.02289      40810.17       25424.116      62           
   1284000  -7829.4522      109.38799     -7938.8402      0.61640401     217.04599      385.28485      293.26182      299.68654      266.73026      40283.906      25096.262      60           
   1285000  -7831.4139      109.6802      -7941.0941      0.61640401     217.62578      320.02805      297.50012      298.73016      267.90829      40834.128      25439.042      67           
   1286000  -7828.0908      112.46429     -7940.5551      0.61640401     223.14995      321.34559      304.40948      308.51575      269.84919      40251.063      25075.801      71           
   1287000  -7832.3466      111.23937     -7943.586       0.61640401     220.71946      296.88702      304.26669      299.25871      278.69287      40971.718      25524.758      67           
   1288000  -7829.7891      111.18807     -7940.9772      0.61640401     220.61767      303.44331      304.01316      299.21094      276.82693      40267.769      25086.208      67           
   1289000  -7830.4604      112.44789     -7942.9082      0.61640401     223.1174       234.64222      307.25437      306.32235      285.74639      40673.828      25339.177      68           
   1290000  -7828.3778      112.17209     -7940.5499      0.61640401     222.57016      271.96258      301.09954      311.30512      283.59818      40605.087      25296.352      62           
   1291000  -7832.1345      110.5615      -7942.696       0.61640401     219.37444      266.38153      305.62744      294.22349      278.34092      40440.463      25193.794      65           
   1292000  -7828.7962      111.57162     -7940.3678      0.61640401     221.37871      303.34613      300.38026      308.08901      274.2848       40570.459      25274.78       77           
   1293000  -7831.647       108.77275     -7940.4198      0.61640401     215.82524      261.27008      292.3483       301.67292      274.83827      40359.79       25143.536      69           
   1294000  -7829.4036      110.41934     -7939.8229      0.61640401     219.09237      310.50623      295.1459       307.3245       272.7053       40746.575      25384.497      67           
   1295000  -7829.0158      113.00205     -7942.0178      0.61640401     224.21696      299.94223      303.82627      313.78762      275.08152      40371.034      25150.541      72           
   1296000  -7828.8723      111.04675     -7939.919       0.61640401     220.33728      345.17401      298.42276      302.99192      280.37905      40769.972      25399.073      68           
   1297000  -7827.0535      111.8057      -7938.8592      0.61640401     221.84318      307.71513      303.57212      303.81368      278.5695       40412.45       25176.343      68           
   1298000  -7827.7002      111.49792     -7939.1981      0.61640401     221.23248      315.07929      306.76366      295.01185      283.64815      40713.056      25363.616      74           
   1299000  -7825.1914      112.66392     -7937.8554      0.61640401     223.54605      260.40981      313.87615      295.74135      288.09045      40445.469      25196.913      64           
   1300000  -7829.187       109.04795     -7938.2349      0.61640401     216.37129      299.20588      296.15686      292.95381      286.51357      40467.323      25210.527      62           
   1301000  -7833.7488      109.85021     -7943.599       0.61640401     217.96313      325.84933      292.21926      302.83182      288.26449      40752.696      25388.311      63           
   1302000  -7832.438       110.42262     -7942.8606      0.61640401     219.09889      325.91952      299.00497      298.05828      284.06112      40344.842      25134.224      63           
   1303000  -7830.1022      112.09977     -7942.202       0.61640401     222.42667      351.31824      298.84969      311.68466      274.98958      40665.714      25334.122      59           
   1304000  -7826.9192      113.10768     -7940.0269      0.61640401     224.42655      296.51962      305.91178      311.30209      277.69789      40232.43       25064.192      57           
   1305000  -7829.2453      109.73662     -7938.982       0.61640401     217.73773      276.07122      293.08944      306.05661      278.54075      40880.91       25468.186      61           
   1306000  -7830.9909      109.18392     -7940.1748      0.61640401     216.64107      265.08337      297.88022      295.51916      278.89107      40175.7        25028.851      67           
   1307000  -7828.7971      109.89495     -7938.692       0.61640401     218.05189      265.19539      300.89302      295.64695      280.29372      40754.827      25389.638      54           
   1308000  -7831.203       111.71831     -7942.9213      0.61640401     221.66978      245.80399      306.13749      301.41888      284.26772      40380.925      25156.703      50           
   1309000  -7831.6515      109.43478     -7941.0862      0.61640401     217.13882      288.63068      299.97878      290.71549      286.94686      40774.919      25402.155      50           
   1310000  -7829.5751      111.62309     -7941.1982      0.61640401     221.48084      319.95834      299.15331      304.89199      294.29295      40401.096      25169.269      59           
   1311000  -7832.1338      109.84836     -7941.9821      0.61640401     217.95945      306.70145      299.39723      292.22451      292.7229       40601.753      25294.276      65           
   1312000  -7832.3664      109.81476     -7942.1811      0.61640401     217.89278      325.92451      292.57583      300.07624      297.10873      40708.296      25360.65       58           
   1313000  -7827.819       111.28647     -7939.1055      0.61640401     220.81293      295.15773      292.06904      315.03434      291.39462      40318.544      25117.841      50           
   1314000  -7830.2319      111.73575     -7941.9677      0.61640401     221.70438      289.34625      299.61501      308.39959      287.62603      40728.405      25373.178      61           
   1315000  -7829.2306      110.63285     -7939.8634      0.61640401     219.51602      249.14041      293.54151      311.90034      285.82824      40370.454      25150.18       60           
   1316000  -7829.845       111.43485     -7941.2799      0.61640401     221.10735      287.54092      299.81502      305.42635      289.80763      40829.507      25436.162      62           
   1317000  -7830.0029      109.83884     -7939.8418      0.61640401     217.94057      303.16233      295.6069       296.67466      298.38419      40056.424      24954.544      61           
   1318000  -7831.4817      108.17624     -7939.658       0.61640401     214.64166      293.26535      284.42458      299.39844      306.27368      40673.915      25339.231      60           
   1319000  -7833.8905      109.77737     -7943.6679      0.61640401     217.81859      357.88237      295.96428      293.0821       296.67308      40479.183      25217.916      58           
   1320000  -7828.9246      113.11363     -7942.0382      0.61640401     224.43834      343.26659      304.68195      303.54109      307.51601      40582.496      25282.278      53           
   1321000  -7828.9351      112.08382     -7941.019       0.61640401     222.39501      375.65363      300.8552       299.9444       306.02797      40637.691      25316.664      57           
   1322000  -7828.278       113.35784     -7941.6358      0.61640401     224.9229       344.52367      307.92976      300.31367      308.88457      40104.216      24984.318      48           
   1323000  -7828.8437      111.98545     -7940.8291      0.61640401     222.19984      273.01821      301.89465      301.8045       310.9088       40907.669      25484.857      51           
   1324000  -7832.0513      110.13364     -7942.1849      0.61640401     218.52549      293.06082      302.78299      287.12569      304.86031      40391.452      25163.261      51           
   1325000  -7826.1566      112.77456     -7938.9312      0.61640401     223.76558      320.90658      310.14594      296.36815      298.13181      40669.414      25336.427      52           
   1326000  -7827.565       112.46538     -7940.0304      0.61640401     223.15211      286.75685      301.46195      309.35396      295.31169      40259.844      25081.271      51           
   1327000  -7830.4403      112.45947     -7942.8998      0.61640401     223.14038      375.05781      297.86968      308.87305      300.58779      40890.058      25473.885      53           
   1328000  -7829.9086      111.14567     -7941.0543      0.61640401     220.53355      365.36925      296.67379      301.58919      297.15146      40304.947      25109.37       61           
   1329000  -7829.7469      109.57769     -7939.3246      0.61640401     217.42238      365.59513      292.68403      296.31215      297.4128       40561.569      25269.241      51           
   1330000  -7829.3278      110.50067     -7939.8285      0.61640401     219.25375      316.82571      294.57292      300.26919      307.82736      40601.048      25293.836      46           
   1331000  -7824.9384      114.72899     -7939.6674      0.61640401     227.64353      350.42221      308.61647      307.38003      315.37491      40300.443      25106.564      56           
   1332000  -7829.2485      112.56108     -7941.8096      0.61640401     223.34199      268.84166      306.67065      296.96594      321.04779      40502.392      25232.375      57           
   1333000  -7828.6144      111.35128     -7939.9657      0.61640401     220.94151      317.78609      301.98516      293.24354      316.61953      40358.926      25142.998      57           
   1334000  -7825.5646      113.02755     -7938.5921      0.61640401     224.26756      325.00995      308.31044      297.20658      311.93434      40784.28       25407.987      61           
   1335000  -7826.8938      115.31594     -7942.2097      0.61640401     228.80814      367.86938      310.64498      309.10864      310.61758      40370.389      25150.139      55           
   1336000  -7830.1287      112.19559     -7942.3243      0.61640401     222.61679      338.07683      298.70087      304.13941      313.57279      40592.689      25288.629      59           
   1337000  -7833.8089      109.55123     -7943.3601      0.61640401     217.36988      274.83579      288.40458      299.38747      327.23575      40422.76       25182.765      51           
   1338000  -7831.6642      110.47317     -7942.1374      0.61640401     219.19918      296.21909      292.51573      301.76508      317.20435      40704.933      25358.555      58           
   1339000  -7830.8821      111.41411     -7942.2962      0.61640401     221.06618      284.19857      308.30899      288.60747      307.16881      40328.898      25124.291      61           
   1340000  -7832.3278      110.77667     -7943.1044      0.61640401     219.80139      312.51207      300.40183      294.92531      303.03537      40406.56       25172.673      60           
   1341000  -7828.1288      111.75243     -7939.8812      0.61640401     221.73748      285.10924      304.47424      297.47205      303.35546      40706.704      25359.658      47           
   1342000  -7830.2768      109.94886     -7940.2256      0.61640401     218.15886      272.71173      292.91163      302.5906       301.2214       40356.175      25141.284      61           
   1343000  -7829.6377      109.73025     -7939.3679      0.61640401     217.72509      325.18571      292.19749      298.64669      303.013        40543.77       25258.153      55           
   1344000  -7833.5928      107.20004     -7940.7929      0.61640401     212.7047       279.46889      283.11101      295.24044      304.21036      40425.783      25184.649      54           
   1345000  -7827.9974      112.00614     -7940.0036      0.61640401     222.24088      339.25689      298.31292      305.85772      302.75265      40480.6        25218.799      59           
   1346000  -7828.9789      111.85079     -7940.8296      0.61640401     221.93264      286.50112      298.79233      306.08919      306.35021      40483.174      25220.402      59           
   1347000  -7831.0953      110.79449     -7941.8898      0.61640401     219.83674      310.98344      293.9358       301.60581      315.95512      40539.541      25255.518      62           
   1348000  -7829.549       110.58205     -7940.1311      0.61640401     219.41524      336.64909      300.91521      287.5203       318.31082      40529.987      25249.566      62           
   1349000  -7827.877       113.96353     -7941.8405      0.61640401     226.12471      318.02813      304.50379      310.32831      311.91819      40320.132      25118.829      59           
   1350000  -7832.5633      111.67442     -7944.2377      0.61640401     221.5827       292.89871      301.13526      299.36691      312.86689      40622.838      25307.411      64           
   1351000  -7832.1083      110.45314     -7942.5615      0.61640401     219.15945      328.68576      294.90128      299.19609      305.31929      40421.278      25181.842      59           
   1352000  -7829.703       110.47325     -7940.1762      0.61640401     219.19935      320.63132      288.84602      307.79814      309.98513      40583.336      25282.802      54           
   1353000  -7828.527       111.22624     -7939.7532      0.61640401     220.69342      298.3558       295.07464      302.4762       320.99135      40548.54       25261.125      49           
   1354000  -7830.0682      112.33937     -7942.4076      0.61640401     222.90208      334.20196      305.46933      292.493        325.80431      40555.17       25265.255      50           
   1355000  -7826.8326      110.18609     -7937.0186      0.61640401     218.62957      280.36954      296.42747      294.06463      318.73983      40585.798      25284.335      49           
   1356000  -7829.953       112.74735     -7942.7003      0.61640401     223.71157      275.47279      298.53276      307.70289      329.38942      40455.148      25202.943      47           
   1357000  -7829.7095      111.06312     -7940.7727      0.61640401     220.36976      385.04659      298.46473      289.15299      333.51486      40567.264      25272.789      47           
   1358000  -7830.6222      113.66442     -7944.2866      0.61640401     225.53122      358.74924      306.79879      298.0717       330.44106      40622.168      25306.994      52           
   1359000  -7825.3724      113.03275     -7938.4051      0.61640401     224.27786      320.24531      307.77494      294.50839      327.67032      40489.924      25224.608      47           
   1360000  -7829.8751      111.78278     -7941.6579      0.61640401     221.79769      352.72991      302.12305      293.15812      322.03075      40611.789      25300.528      54           
   1361000  -7831.0733      112.15174     -7943.225       0.61640401     222.52977      353.58469      301.41128      297.80021      319.59688      40573.385      25276.602      51           
   1362000  -7829.4239      110.48906     -7939.913       0.61640401     219.23072      373.21347      287.4489       307.16746      311.58201      40552.047      25263.309      51           
   1363000  -7830.4095      111.2946      -7941.7041      0.61640401     220.82906      338.99415      294.64665      303.44949      313.43458      40448.213      25198.622      56           
   1364000  -7830.4972      109.9611      -7940.4583      0.61640401     218.18315      371.07386      290.85114      296.80561      316.24025      40515.97       25240.834      55           
   1365000  -7825.5136      113.78388     -7939.2975      0.61640401     225.76825      353.0508       301.7867       310.3884       316.11728      40600.366      25293.411      53           
   1366000  -7828.3575      112.4499      -7940.8074      0.61640401     223.12139      355.01185      302.225        298.23074      319.65228      40444.928      25196.576      63           
   1367000  -7830.9686      110.29443     -7941.263       0.61640401     218.84453      275.15688      292.12367      302.01287      318.80871      40564.775      25271.238      60           
   1368000  -7831.4145      109.89428     -7941.3088      0.61640401     218.05057      289.00536      292.52954      296.40671      323.90828      40512.468      25238.652      60           
   1369000  -7829.929       112.14593     -7942.075       0.61640401     222.51826      307.61883      298.24317      304.1028       323.00677      40801.749      25418.87       59           
   1370000  -7829.8349      111.84367     -7941.6785      0.61640401     221.91851      287.69578      293.68924      309.86114      323.42695      40439.708      25193.324      66           
   1371000  -7832.1042      109.69819     -7941.8024      0.61640401     217.66148      321.22289      297.33454      285.86149      324.51709      40538.883      25255.108      65           
   1372000  -7829.2448      113.3526      -7942.5974      0.61640401     224.9125       392.97714      300.99165      305.1853       315.26123      40551.707      25263.098      69           
   1373000  -7829.3287      112.25707     -7941.5858      0.61640401     222.73878      401.22927      301.15914      298.73709      305.8479       40606.464      25297.21       65           
   1374000  -7829.0426      110.78897     -7939.8316      0.61640401     219.82579      347.81107      300.87852      291.04683      307.48403      40371.528      25150.848      65           
   1375000  -7828.3833      112.88819     -7941.2714      0.61640401     223.99104      343.88846      304.40873      301.82857      307.88762      40586.322      25284.662      62           
   1376000  -7828.8301      110.19325     -7939.0233      0.61640401     218.64378      242.61942      303.53361      288.09905      309.90848      40617.739      25304.234      58           
   1377000  -7828.4842      110.68076     -7939.1649      0.61640401     219.61108      276.40499      301.19654      293.35465      309.99856      40374.183      25152.503      57           
   1378000  -7832.4872      109.29173     -7941.7789      0.61640401     216.855        286.03114      301.99207      281.89035      307.48006      40568.271      25273.416      62           
   1379000  -7831.1586      110.63071     -7941.7893      0.61640401     219.51178      310.89626      292.03111      303.4601       315.25594      40507.359      25235.469      65           
   1380000  -7826.4948      111.67437     -7938.1692      0.61640401     221.58259      320.79274      302.10763      296.65633      311.26778      40666.096      25334.36       63           
   1381000  -7828.2871      111.92377     -7940.2108      0.61640401     222.07744      303.79807      302.8513       298.79142      309.75567      40320.438      25119.02       64           
   1382000  -7829.3185      110.72714     -7940.0457      0.61640401     219.7031       285.68323      305.3505       288.25629      305.32768      40431.429      25188.166      64           
   1383000  -7833.985       109.10404     -7943.0891      0.61640401     216.48259      357.41145      294.69334      288.23876      301.09946      40657.465      25328.983      69           
   1384000  -7827.3662      113.91353     -7941.2798      0.61640401     226.0255       327.51459      312.24965      300.10832      302.28495      40849.269      25448.474      63           
   1385000  -7830.5736      110.88316     -7941.4568      0.61640401     220.01268      335.16341      300.14373      294.70989      302.74571      40456.752      25203.942      66           
   1386000  -7830.4498      109.57973     -7940.0296      0.61640401     217.42644      295.73355      299.18956      287.16467      309.93974      40348.291      25136.372      70           
   1387000  -7831.3327      110.37316     -7941.7058      0.61640401     219.00074      292.28319      292.40064      301.65067      316.87256      40694.66       25352.155      59           
   1388000  -7830.5123      109.82837     -7940.3407      0.61640401     217.91978      229.29104      287.46755      308.28726      316.88743      40411.683      25175.865      57           
   1389000  -7826.3285      113.27724     -7939.6057      0.61640401     224.76298      303.24038      305.06763      304.81749      313.24073      40676.419      25340.791      54           
   1390000  -7829.8442      112.99938     -7942.8435      0.61640401     224.21166      284.7536       303.99028      308.17555      301.54236      40437.002      25191.638      54           
   1391000  -7830.8542      110.28306     -7941.1372      0.61640401     218.82197      313.63468      296.67632      299.20184      293.7402       40609.605      25299.167      47           
   1392000  -7828.3676      110.34185     -7938.7095      0.61640401     218.93862      375.98777      294.85618      300.03438      290.24251      40360.814      25144.174      52           
   1393000  -7827.8381      112.27739     -7940.1155      0.61640401     222.77909      313.05951      303.39302      303.40448      296.66008      40765.641      25396.375      52           
   1394000  -7830.4924      108.64891     -7939.1413      0.61640401     215.57953      316.48646      298.75226      281.65903      301.34661      40560.425      25268.529      54           
   1395000  -7829.3518      111.49503     -7940.8468      0.61640401     221.22675      310.27791      295.30971      308.00443      303.14873      40513.06       25239.021      58           
   1396000  -7830.0702      109.50421     -7939.5745      0.61640401     217.27659      358.53529      297.27519      288.43263      299.87663      40503.35       25232.972      55           
   1397000  -7829.5878      111.0144      -7940.6022      0.61640401     220.27309      322.15044      294.24727      305.17681      304.85661      40503.112      25232.823      49           
   1398000  -7831.0386      111.76486     -7942.8035      0.61640401     221.76214      351.99977      300.99529      301.14887      294.55244      40680.792      25343.515      62           
   1399000  -7829.248       110.4207      -7939.6687      0.61640401     219.09507      373.18072      300.35109      291.96057      291.08247      40543.414      25257.931      57           
   1400000  -7827.2163      114.26989     -7941.4862      0.61640401     226.73258      350.73526      302.1695       320.52539      285.74439      40572.746      25276.204      61           
   1401000  -7829.6053      111.2812      -7940.8865      0.61640401     220.80246      343.31127      297.37772      307.38103      277.4424       40606.855      25297.454      63           
   1402000  -7828.0896      111.02445     -7939.1141      0.61640401     220.29303      355.39568      300.89715      299.41866      279.33945      40567.594      25272.995      57           
   1403000  -7831.9686      110.0804      -7942.049       0.61640401     218.41986      407.06995      296.18382      294.32639      287.69856      40477.682      25216.981      59           
   1404000  -7828.9154      111.61326     -7940.5287      0.61640401     221.46133      351.32698      305.86081      293.98764      292.0711       40614.222      25302.043      50           
   1405000  -7825.5872      112.28654     -7937.8737      0.61640401     222.79726      330.79104      304.44108      301.93741      292.41214      40396.022      25166.108      55           
   1406000  -7830.4528      108.70422     -7939.157       0.61640401     215.68927      318.47406      295.26824      290.21362      288.40574      40683.78       25345.377      58           
   1407000  -7826.217       113.00668     -7939.2237      0.61640401     224.22615      289.03396      311.78346      302.04832      278.47023      40435.122      25190.467      65           
   1408000  -7829.8033      111.03195     -7940.8352      0.61640401     220.30791      341.77851      301.64661      299.62319      275.82689      40664.029      25333.072      63           
   1409000  -7829.2322      110.64853     -7939.8808      0.61640401     219.54714      322.70829      296.13274      306.61002      273.73281      40589.491      25286.636      64           
   1410000  -7831.4626      109.96966     -7941.4322      0.61640401     218.20012      313.5244       305.00239      287.08207      281.55199      40434.422      25190.031      61           
   1411000  -7830.9938      109.95892     -7940.9527      0.61640401     218.17883      367.7858       292.48756      301.05804      286.64675      40582.45       25282.25       64           
   1412000  -7832.7648      112.76686     -7945.5316      0.61640401     223.75029      357.23963      300.53632      309.20043      294.35967      40759.338      25392.448      61           
   1413000  -7827.7273      112.4588      -7940.1861      0.61640401     223.13904      338.55037      298.77291      309.41791      299.6765       40295.074      25103.219      58           
   1414000  -7826.9185      113.54222     -7940.4608      0.61640401     225.28876      352.33843      306.36586      305.37388      300.30832      40616.5        25303.462      58           
   1415000  -7831.9865      111.18034     -7943.1669      0.61640401     220.60234      315.87001      303.27685      293.37204      303.76625      40685.759      25346.61       56           
   1416000  -7833.7535      107.55042     -7941.3039      0.61640401     213.39991      304.70121      292.74511      284.12494      296.43809      40383.774      25158.478      57           
   1417000  -7827.5665      111.59539     -7939.1619      0.61640401     221.42588      320.51562      313.23156      287.95912      278.47842      40395.501      25165.784      45           
   1418000  -7827.1799      110.60016     -7937.78        0.61640401     219.45116      300.21509      304.54568      296.14181      270.95681      40558.423      25267.281      52           
   1419000  -7831.7644      109.04347     -7940.8078      0.61640401     216.36239      344.40166      292.01513      299.48074      275.74047      40587.611      25285.465      56           
   1420000  -7832.6639      107.88158     -7940.5455      0.61640401     214.057        291.3547       292.98789      287.94036      292.57347      40485.809      25222.044      59           
   1421000  -7832.0901      109.84879     -7941.9389      0.61640401     217.96029      314.61027      293.95835      297.7477       301.98175      40829.648      25436.25       55           
   1422000  -7828.434       113.6003      -7942.0343      0.61640401     225.40398      319.32169      310.57383      299.75667      306.92764      40192.45       25039.286      56           
   1423000  -7828.967       110.45531     -7939.4223      0.61640401     219.16374      290.82663      299.81098      294.58869      303.2013       40406.982      25172.936      59           
   1424000  -7827.695       111.55816     -7939.2532      0.61640401     221.352        327.31093      300.26232      301.25754      300.41542      40682.636      25344.664      43           
   1425000  -7828.3843      112.05039     -7940.4347      0.61640401     222.32869      300.04134      305.12471      301.2929       290.64051      40616.678      25303.573      43           
   1426000  -7831.4296      109.30707     -7940.7367      0.61640401     216.88544      282.86821      294.17936      297.80125      290.22725      40572.543      25276.078      42           
   1427000  -7826.9667      112.78323     -7939.75        0.61640401     223.78278      289.04546      300.40787      315.11317      287.59807      40523.749      25245.68       53           
   1428000  -7828.2694      110.49719     -7938.7666      0.61640401     219.24686      306.65338      295.70131      303.68808      288.97758      40665.937      25334.261      52           
   1429000  -7830.544       109.7494      -7940.2934      0.61640401     217.76309      329.28605      292.80389      300.905        291.34755      40308.453      25111.554      46           
   1430000  -7831.4367      110.24434     -7941.6811      0.61640401     218.74515      265.5633       299.11127      296.85814      296.14313      40676.306      25340.72       48           
   1431000  -7828.5857      110.73285     -7939.3185      0.61640401     219.71444      269.9652       305.96766      289.0546       299.92181      40433.333      25189.352      45           
   1432000  -7828.4932      113.00214     -7941.4953      0.61640401     224.21714      290.61632      307.15487      302.99132      301.79604      40820.494      25430.548      45           
   1433000  -7824.0878      113.51975     -7937.6075      0.61640401     225.24418      284.68385      312.60151      299.75452      299.21555      40466.115      25209.775      50           
   1434000  -7827.7901      111.92205     -7939.7122      0.61640401     222.07403      295.66497      302.42509      304.00563      292.76925      40595.953      25290.662      54           
   1435000  -7830.6232      110.09217     -7940.7154      0.61640401     218.44322      341.5182       294.30265      301.0031       289.5576       40714.519      25364.527      49           
   1436000  -7833.5262      107.67563     -7941.2019      0.61640401     213.64835      373.04022      289.75027      288.88837      284.87943      40355.374      25140.785      54           
   1437000  -7829.019       112.6162      -7941.6352      0.61640401     223.45135      313.91851      309.44432      297.95482      292.66062      40710.467      25362.003      46           
   1438000  -7829.4598      110.87841     -7940.3382      0.61640401     220.00326      304.30167      300.18129      299.16856      292.7953       40431.646      25188.301      39           
   1439000  -7828.0569      113.3072      -7941.3641      0.61640401     224.82242      304.42134      303.52993      311.76824      295.3842       41046.602      25571.41       41           
   1440000  -7828.6185      109.16576     -7937.7842      0.61640401     216.60504      350.89468      291.91666      297.00724      289.52048      40153.935      25015.291      52           
   1441000  -7829.9785      111.39851     -7941.377       0.61640401     221.03524      325.83146      307.21075      292.12214      290.70258      40681.765      25344.122      50           
   1442000  -7827.556       109.38619     -7936.9421      0.61640401     217.04241      335.83654      300.43902      288.22648      285.20284      40584.097      25283.276      42           
   1443000  -7826.9532      110.16916     -7937.1223      0.61640401     218.59598      340.67866      301.61043      293.94949      277.58751      40596.586      25291.057      46           
   1444000  -7829.4306      111.22574     -7940.6563      0.61640401     220.69242      365.27355      302.74025      298.2086       281.6408       40625.726      25309.21       44           
   1445000  -7832.8899      108.69939     -7941.5893      0.61640401     215.67969      391.45375      287.33081      300.3132       283.97022      40548.95       25261.38       46           
   1446000  -7830.7289      108.96881     -7939.6977      0.61640401     216.21425      307.12706      293.30152      296.56551      286.1981       40794          25414.042      45           
   1447000  -7830.0447      112.00059     -7942.0453      0.61640401     222.22987      243.12409      305.01581      304.39447      287.392        40330.289      25125.158      46           
   1448000  -7829.7699      111.84655     -7941.6164      0.61640401     221.92424      309.80492      297.23482      312.51482      285.1156       40902.874      25481.869      46           
   1449000  -7828.7014      111.87087     -7940.5722      0.61640401     221.97248      319.30222      313.88246      288.90992      280.2017       40205.026      25047.121      38           
   1450000  -7825.4075      112.74517     -7938.1527      0.61640401     223.70726      323.32684      302.04308      313.25229      278.95397      40760.941      25393.447      42           
   1451000  -7827.4696      111.49655     -7938.9661      0.61640401     221.22976      399.97946      304.24096      297.56293      278.23339      40559.133      25267.724      43           
   1452000  -7829.1908      110.91409     -7940.1048      0.61640401     220.07406      340.22106      302.13563      299.31906      276.59198      40483.71       25220.736      42           
   1453000  -7827.5528      110.37252     -7937.9254      0.61640401     218.99948      395.28034      296.42936      299.64775      283.33338      40652.237      25325.726      43           
   1454000  -7831.5248      108.92895     -7940.4538      0.61640401     216.13517      326.26745      290.54891      298.08052      291.51538      40585.561      25284.188      49           
   1455000  -7827.4221      114.8067      -7942.2288      0.61640401     227.7977       315.4476       314.12294      307.08432      293.90504      40498.73       25230.094      50           
   1456000  -7830.406       111.06672     -7941.4727      0.61640401     220.37689      324.04854      309.50434      285.6504       293.86358      40422.98       25182.902      40           
   1457000  -7827.3814      112.43488     -7939.8163      0.61640401     223.09159      297.01583      305.36917      302.94704      294.67402      40889.049      25473.257      36           
   1458000  -7828.8616      107.8676      -7936.7292      0.61640401     214.02925      287.386        290.28426      293.27603      287.63464      40249.411      25074.772      40           
   1459000  -7827.2001      113.15083     -7940.3509      0.61640401     224.51215      305.51526      303.57561      313.56932      283.35135      40574.064      25277.025      46           
   1460000  -7828.4333      110.88524     -7939.3185      0.61640401     220.0168       313.45779      297.52902      302.63736      293.28959      40592.906      25288.764      44           
   1461000  -7832.3284      107.65889     -7939.9873      0.61640401     213.61514      355.89733      285.90998      292.52034      298.50389      40627.902      25310.566      46           
   1462000  -7829.2498      112.15752     -7941.4074      0.61640401     222.54126      337.33715      293.16742      312.60397      313.30929      40328.544      25124.07       44           
   1463000  -7830.3315      111.71173     -7942.0432      0.61640401     221.65673      347.69827      293.89573      307.64107      313.32014      40604.112      25295.745      46           
   1464000  -7829.7944      112.11822     -7941.9127      0.61640401     222.46327      358.12213      303.22643      294.21439      320.30442      40630.254      25312.031      54           
   1465000  -7828.3769      113.03809     -7941.4149      0.61640401     224.28846      356.79815      302.34962      302.53343      319.68841      40268.273      25086.522      59           
   1466000  -7826.659       114.37086     -7941.0299      0.61640401     226.93293      312.26622      302.46215      313.26821      325.67004      40734.377      25376.898      53           
   1467000  -7825.2391      113.78409     -7939.0232      0.61640401     225.76868      285.1338       302.82117      310.44862      323.22632      40287.943      25098.776      53           
   1468000  -7826.9914      112.08483     -7939.0762      0.61640401     222.39702      254.4614       298.82363      305.33469      320.83617      40738.418      25379.415      45           
   1469000  -7827.8599      109.94081     -7937.8007      0.61640401     218.14288      280.7586       289.15533      302.58699      320.32181      40432.805      25189.023      50           
   1470000  -7826.619       113.5347      -7940.1537      0.61640401     225.27384      276.48692      306.04712      303.54432      324.44347      40560.877      25268.81       47           
   1471000  -7823.209       112.62685     -7935.8358      0.61640401     223.47249      289.82624      306.05755      296.34796      323.46439      40579.693      25280.533      49           
   1472000  -7826.2801      111.64564     -7937.9258      0.61640401     221.52558      251.53232      295.6669       305.22743      325.19946      40615.446      25302.806      40           
   1473000  -7827.7867      112.31469     -7940.1014      0.61640401     222.85311      307.24405      299.71645      301.11183      329.18425      40461.508      25206.905      35           
   1474000  -7822.437       117.33415     -7939.7712      0.61640401     232.81264      299.94295      311.82544      320.11886      333.31413      40552.048      25263.31       42           
   1475000  -7828.0598      111.8765      -7939.9363      0.61640401     221.98365      360.35142      298.45147      296.24729      335.02356      40721.585      25368.929      42           
   1476000  -7829.9536      111.92481     -7941.8784      0.61640401     222.07952      275.88294      299.32174      298.36507      337.58987      40344.178      25133.81       52           
   1477000  -7829.9084      110.4943      -7940.4027      0.61640401     219.24112      235.51002      295.94691      294.14806      338.44311      40601.777      25294.29       49           
   1478000  -7829.1924      112.31019     -7941.5026      0.61640401     222.84417      281.30752      301.21378      298.40806      337.70452      40568.952      25273.841      56           
   1479000  -7826.3566      113.25044     -7939.607       0.61640401     224.70981      308.13756      302.90596      302.01289      335.96298      40613.066      25301.323      52           
   1480000  -7824.4114      114.00712     -7938.4185      0.61640401     226.21121      298.58048      307.12038      304.34238      326.50163      40639.372      25317.712      58           
   1481000  -7828.7133      110.03931     -7938.7526      0.61640401     218.33834      323.54882      297.23306      287.95628      325.82815      40514.904      25240.17       61           
   1482000  -7825.5814      114.99222     -7940.5736      0.61640401     228.16582      314.48401      315.497        298.31704      326.99285      40588.855      25286.24       67           
   1483000  -7828.6261      111.68323     -7940.3094      0.61640401     221.60016      278.77663      300.50756      297.43451      327.84468      40413.271      25176.854      58           
   1484000  -7828.1323      109.18196     -7937.3142      0.61640401     216.63719      280.92546      288.62117      294.0567       336.00199      40642.897      25319.908      57           
   1485000  -7831.3466      111.29564     -7942.6423      0.61640401     220.83113      311.00875      291.24555      303.06734      342.10437      40654.3        25327.011      49           
   1486000  -7829.2225      112.64415     -7941.8666      0.61640401     223.50681      227.953        309.41673      288.60979      348.85682      40481.587      25219.414      52           
   1487000  -7825.7205      114.8485      -7940.569       0.61640401     227.88065      267.35172      305.98176      309.36297      346.38429      40450.624      25200.124      60           
   1488000  -7829.2926      112.70103     -7941.9936      0.61640401     223.61968      274.43527      298.75361      304.44405      341.65578      40490.487      25224.958      56           
   1489000  -7829.0913      112.25768     -7941.3489      0.61640401     222.73998      270.43848      301.99773      297.79086      335.47378      40570.803      25274.994      52           
   1490000  -7824.9982      112.87048     -7937.8687      0.61640401     223.9559       263.21619      306.46483      298.62244      326.52988      40568.91       25273.815      58           
   1491000  -7825.2765      113.15579     -7938.4323      0.61640401     224.522        287.28629      305.66358      302.67791      318.37494      40351.884      25138.611      58           
   1492000  -7828.3085      111.0033      -7939.3118      0.61640401     220.25107      303.83309      297.18246      298.46628      317.84144      40703.987      25357.965      70           
   1493000  -7826.6317      112.134       -7938.7657      0.61640401     222.49459      284.41437      295.26909      310.68978      319.17834      40677.087      25341.207      67           
   1494000  -7830.0554      110.53483     -7940.5902      0.61640401     219.32154      322.02195      291.46429      300.48054      325.57658      40386.228      25160.007      67           
   1495000  -7833.5517      107.76712     -7941.3188      0.61640401     213.82989      304.57871      283.06083      291.22953      333.94111      40438.262      25192.423      72           
   1496000  -7827.5421      112.60192     -7940.144       0.61640401     223.42303      279.2765       292.96698      312.91481      341.01794      40661.411      25331.441      70           
   1497000  -7827.511       110.92918     -7938.4402      0.61640401     220.104        271.77128      292.89267      301.77172      336.60253      40576.701      25278.668      64           
   1498000  -7829.0115      112.5264      -7941.5379      0.61640401     223.27319      295.19705      300.53931      303.05059      328.42958      40206.323      25047.928      72           
   1499000  -7831.7915      111.17886     -7942.9703      0.61640401     220.59941      259.32521      298.66846      299.12247      322.82765      40701.518      25356.427      64           
   1500000  -7826.5058      112.52639     -7939.0322      0.61640401     223.27316      288.65814      301.37865      303.39727      322.27415      40552.152      25263.375      63           
   1501000  -7830.7866      109.33827     -7940.1249      0.61640401     216.94734      234.48138      294.20161      292.85571      325.1258       40501.92       25232.081      65           
   1502000  -7831.132       111.73284     -7942.8648      0.61640401     221.6986       280.77019      294.49379      307.78889      324.04889      40459.496      25205.651      65           
   1503000  -7833.2893      111.3606      -7944.6499      0.61640401     220.96001      303.4573       300.17315      291.84888      337.63381      40873.013      25463.266      60           
   1504000  -7826.0597      114.47173     -7940.5315      0.61640401     227.13307      334.57208      306.31955      304.22571      337.63133      40234.646      25065.573      60           
   1505000  -7827.9835      112.93981     -7940.9233      0.61640401     224.09346      293.80437      302.27961      302.4089       331.74571      40639.375      25317.713      58           
   1506000  -7830.4172      111.25303     -7941.6702      0.61640401     220.74658      289.34068      300.38895      293.72186      328.29369      40539.473      25255.476      57           
   1507000  -7833.5343      109.81216     -7943.3464      0.61640401     217.88763      274.99735      291.93386      297.58627      322.07737      40459.838      25205.864      54           
   1508000  -7828.872       110.77275     -7939.6448      0.61640401     219.79361      280.42923      296.81528      298.01828      318.85951      40536.471      25253.606      53           
   1509000  -7827.7051      110.56227     -7938.2673      0.61640401     219.37599      266.76922      300.92586      292.33575      315.03295      40563.143      25270.222      63           
   1510000  -7825.4456      112.44818     -7937.8938      0.61640401     223.11798      313.16415      301.54247      303.86762      310.85117      40565.357      25271.601      61           
   1511000  -7830.5141      112.01833     -7942.5324      0.61640401     222.26508      316.10376      306.97205      292.16371      311.80172      40473.189      25214.182      61           
   1512000  -7832.4646      109.33536     -7941.8         0.61640401     216.94155      326.64802      294.14194      288.70033      319.14711      40559.184      25267.756      60           
   1513000  -7829.2971      111.3865      -7940.6836      0.61640401     221.01141      304.13698      295.86932      300.77255      327.33577      40474.722      25215.137      61           
   1514000  -7830.4612      112.64365     -7943.1048      0.61640401     223.50582      279.74007      300.6936       303.12957      334.01671      40547.473      25260.46       65           
   1515000  -7835.1376      110.5734      -7945.711       0.61640401     219.39807      289.76932      297.60439      291.58333      333.01725      40472.374      25213.674      60           
   1516000  -7830.3245      110.65529     -7940.9798      0.61640401     219.56055      273.01548      297.95597      293.97999      329.32606      40606.31       25297.115      67           
   1517000  -7827.5257      110.72342     -7938.2491      0.61640401     219.69572      311.99424      297.76028      294.79266      318.33337      40393.428      25164.492      66           
   1518000  -7834.0564      107.7692      -7941.8256      0.61640401     213.83402      293.20798      292.22729      284.67372      307.26273      40419.138      25180.509      67           
   1519000  -7828.3806      111.49098     -7939.8716      0.61640401     221.21871      301.00528      299.02708      302.51225      305.39748      40674.057      25339.319      66           
   1520000  -7833.9803      109.60518     -7943.5855      0.61640401     217.47694      272.94137      297.31159      292.50865      305.84238      40492.781      25226.387      65           
   1521000  -7831.9372      110.20993     -7942.1471      0.61640401     218.67688      250.89832      301.14644      291.88532      308.57443      40563.509      25270.45       62           
   1522000  -7828.2827      110.35887     -7938.6416      0.61640401     218.9724       278.19509      297.20955      294.60126      319.69071      40529.449      25249.231      64           
   1523000  -7827.4035      114.33654     -7941.74        0.61640401     226.86484      314.9585       309.53713      302.84357      324.344        40540.126      25255.883      64           
   1524000  -7828.3475      113.06667     -7941.4142      0.61640401     224.34518      334.72846      302.70612      302.05391      325.1045       40614.94       25302.491      67           
   1525000  -7829.3588      112.02231     -7941.3811      0.61640401     222.27297      264.07325      305.44099      295.44103      320.45596      40733.109      25376.108      60           
   1526000  -7828.43        111.97949     -7940.4095      0.61640401     222.188        305.90951      303.59753      296.85606      314.6589       40447.63       25198.259      66           
   1527000  -7831.0088      109.24563     -7940.2544      0.61640401     216.76353      263.36635      296.79419      292.5786       299.81528      40595.635      25290.464      65           
   1528000  -7829.0112      109.6433      -7938.6545      0.61640401     217.55257      274.54238      298.29756      295.36582      288.59475      40586.725      25284.913      70           
   1529000  -7833.1477      108.70972     -7941.8574      0.61640401     215.70018      311.91893      295.22011      292.07952      282.22363      40605.726      25296.751      62           
   1530000  -7830.3182      110.93699     -7941.2552      0.61640401     220.11949      350.84008      297.78359      300.00651      292.15504      40473.434      25214.335      68           
   1531000  -7831.8544      111.11477     -7942.9692      0.61640401     220.47223      297.23925      307.84982      288.32841      298.41055      40604.459      25295.961      65           
   1532000  -7829.6424      111.63738     -7941.2798      0.61640401     221.50919      305.11966      299.38652      301.81708      309.57894      40690.073      25349.297      67           
   1533000  -7826.3645      111.65231     -7938.0168      0.61640401     221.53881      300.6809       295.79053      308.57149      305.14609      40543.031      25257.692      64           
   1534000  -7828.5789      112.03538     -7940.6143      0.61640401     222.29891      299.93438      307.61392      294.67042      302.00179      40566.504      25272.316      66           
   1535000  -7826.1224      111.38915     -7937.5116      0.61640401     221.01667      303.60181      300.51869      302.65146      291.51703      40511.448      25238.017      59           
   1536000  -7827.9417      111.23473     -7939.1764      0.61640401     220.71027      274.2995       300.26575      303.3647       291.956        40602.65       25294.834      57           
   1537000  -7827.5685      111.145       -7938.7135      0.61640401     220.53222      262.83912      307.6274       293.71076      287.23283      40409.982      25174.805      61           
   1538000  -7830.2081      108.57651     -7938.7846      0.61640401     215.43586      300.33727      295.11168      291.40061      284.86079      40710.183      25361.825      54           
   1539000  -7824.8559      111.04138     -7935.8973      0.61640401     220.32663      237.33229      302.99984      299.68096      292.11256      40766.075      25396.645      55           
   1540000  -7832.5785      109.22304     -7941.8015      0.61640401     216.7187       313.07708      297.71884      287.71489      300.94555      40380.162      25156.227      59           
   1541000  -7828.7415      111.06744     -7939.8089      0.61640401     220.37832      280.66615      299.90717      297.81955      311.03722      40584.048      25283.245      63           
   1542000  -7829.7566      110.56439     -7940.321       0.61640401     219.38018      260.29462      308.44648      282.33643      312.25628      40410.763      25175.292      64           
   1543000  -7830.4944      110.45938     -7940.9537      0.61640401     219.17183      294.96777      292.6553       304.29592      306.4791       40559.675      25268.061      56           
   1544000  -7831.0596      109.8418      -7940.9014      0.61640401     217.94642      283.61517      289.5357       307.61291      295.10842      40553.45       25264.183      53           
   1545000  -7828.155       110.3246      -7938.4796      0.61640401     218.9044       303.35618      294.52916      303.66704      291.57338      40514.271      25239.776      52           
   1546000  -7827.4541      111.4893      -7938.9434      0.61640401     221.21538      323.78277      303.98635      295.762        297.19888      40489.885      25224.583      59           
   1547000  -7829.6444      113.99715     -7943.6416      0.61640401     226.19141      274.3706       313.36664      302.08318      300.97435      40518.046      25242.127      46           
   1548000  -7827.0573      112.20592     -7939.2632      0.61640401     222.63729      255.43929      301.56824      304.6931       312.9183       40449.906      25199.677      57           
   1549000  -7828.2953      109.94814     -7938.2435      0.61640401     218.15743      272.76776      290.19751      302.36238      317.26337      40361.398      25144.538      52           
   1550000  -7827.2738      113.27082     -7940.5446      0.61640401     224.75024      283.23062      310.89892      294.71794      322.55167      40679.781      25342.885      51           
   1551000  -7828.2178      114.73315     -7942.9509      0.61640401     227.65178      335.74956      306.42462      311.25253      315.78667      40585.319      25284.037      64           
   1552000  -7829.4581      111.23182     -7940.69        0.61640401     220.70448      317.40109      294.5657       303.53479      316.40675      40531.799      25250.695      61           
   1553000  -7827.5507      111.8032      -7939.3539      0.61640401     221.83822      338.2672       299.03553      301.80708      309.06685      40275.655      25091.121      59           
   1554000  -7828.0019      114.63823     -7942.6402      0.61640401     227.46344      328.79234      308.65008      308.8029       311.69195      40804.714      25420.717      53           
   1555000  -7826.0001      113.77776     -7939.7779      0.61640401     225.75611      230.68585      308.43559      307.06793      311.9767       40582.926      25282.546      47           
   1556000  -7830.3415      109.18557     -7939.5271      0.61640401     216.64436      310.60813      298.85143      283.07435      312.42933      40471.118      25212.892      49           
   1557000  -7828.1056      112.8537      -7940.9593      0.61640401     223.9226       244.5306       308.21052      297.96984      319.61991      40462.549      25207.553      48           
   1558000  -7825.8493      114.12224     -7939.9715      0.61640401     226.43961      306.54599      300.59662      314.59153      325.39604      40741.494      25381.332      46           
   1559000  -7828.6136      112.35545     -7940.9691      0.61640401     222.93398      311.33028      301.20891      300.14188      325.36425      40430.491      25187.582      57           
   1560000  -7826.8888      111.38132     -7938.2701      0.61640401     221.00113      323.88299      295.86304      301.63355      319.67396      40701          25356.105      49           
   1561000  -7829.5242      111.65252     -7941.1767      0.61640401     221.53923      296.97234      306.14447      291.33877      313.29203      40431.452      25188.18       58           
   1562000  -7827.456       110.62553     -7938.0815      0.61640401     219.5015       320.00176      297.42019      296.05894      310.7334       40564.447      25271.034      49           
   1563000  -7826.4608      110.84285     -7937.3037      0.61640401     219.93271      347.62161      297.14912      299.56051      299.0175       40514.242      25239.757      53           
   1564000  -7832.646       111.86149     -7944.5075      0.61640401     221.95388      289.67856      306.49694      294.70206      304.78589      40569.77       25274.35       46           
   1565000  -7829.8931      111.57426     -7941.4673      0.61640401     221.38395      389.49475      297.51552      300.43738      307.93561      40671.858      25337.95       50           
   1566000  -7831.598       112.08107     -7943.6791      0.61640401     222.38955      460.90656      299.23145      298.25889      306.8968       40344.374      25133.932      52           
   1567000  -7830.7673      110.45533     -7941.2226      0.61640401     219.16379      364.10019      291.4845       297.77569      325.47456      40526.963      25247.682      51           
   1568000  -7827.8491      111.52512     -7939.3742      0.61640401     221.28645      292.82447      302.24356      292.65473      328.20474      40621.205      25306.393      54           
   1569000  -7827.7584      112.54861     -7940.307       0.61640401     223.31724      321.23768      306.93266      293.68736      321.25859      40605.951      25296.891      45           
   1570000  -7829.7472      111.27335     -7941.0206      0.61640401     220.7869       371.72562      294.5623       301.5475       317.40539      40539.338      25255.391      43           
   1571000  -7833.3381      109.93492     -7943.273       0.61640401     218.1312       332.86027      289.19013      304.92712      302.01777      40597.519      25291.638      43           
   1572000  -7830.7881      111.72184     -7942.51        0.61640401     221.67677      267.59341      305.57631      297.29376      300.63432      40404.054      25171.112      53           
   1573000  -7828.2861      111.13487     -7939.4209      0.61640401     220.51211      337.90012      293.50094      307.6873       300.68706      40528.076      25248.375      43           
   1574000  -7826.9891      112.92154     -7939.9106      0.61640401     224.05721      379.54214      303.77151      303.09185      304.54427      40658.39       25329.559      43           
   1575000  -7825.5273      113.83517     -7939.3625      0.61640401     225.87002      370.28294      308.01048      301.2755       314.20395      40374.276      25152.561      48           
   1576000  -7828.0715      111.22636     -7939.2979      0.61640401     220.69365      307.90111      293.19821      304.89043      320.91264      40802.927      25419.603      44           
   1577000  -7826.7741      114.25771     -7941.0318      0.61640401     226.70842      334.96516      300.88509      315.52971      319.53837      40599.014      25292.569      43           
   1578000  -7828.7991      111.91797     -7940.7171      0.61640401     222.06594      268.68435      304.96957      294.99286      318.01625      40579.51       25280.418      45           
   1579000  -7831.0203      110.60918     -7941.6295      0.61640401     219.46906      287.62345      296.67905      299.05839      308.81806      40552.504      25263.594      49           
   1580000  -7830.4338      109.17113     -7939.605       0.61640401     216.6157       273.3843       293.06175      297.42472      296.65615      40739.387      25380.019      52           
   1581000  -7828.0729      111.94827     -7940.0212      0.61640401     222.12606      343.75378      304.23228      300.25482      288.40505      40708.401      25360.716      49           
   1582000  -7829.0161      110.66015     -7939.6763      0.61640401     219.5702       353.15671      298.62789      298.20712      291.09995      40699.681      25355.283      43           
   1583000  -7831.1349      109.67048     -7940.8054      0.61640401     217.6065       267.16903      296.66616      294.71032      301.48727      40579.513      25280.42       46           
   1584000  -7832.6765      108.66382     -7941.3403      0.61640401     215.6091       218.00187      295.07842      288.41505      313.52994      40269.811      25087.481      44           
   1585000  -7827.9519      109.67618     -7937.6281      0.61640401     217.61781      310.66913      290.57159      297.42081      318.82232      40499.479      25230.56       54           
   1586000  -7829.5036      110.92896     -7940.4325      0.61640401     220.10356      349.37801      304.40044      284.19791      319.38907      40494.412      25227.404      55           
   1587000  -7831.5999      112.13192     -7943.7319      0.61640401     222.49045      371.3184       307.61083      289.21243      313.01526      40807.019      25422.153      50           
   1588000  -7825.2077      111.70826     -7936.9159      0.61640401     221.64984      292.29773      302.17225      301.99705      296.84154      40395.554      25165.817      62           
   1589000  -7829.2638      109.19331     -7938.4571      0.61640401     216.6597       288.54526      294.9932       294.12282      296.20916      40484.667      25221.332      63           
   1590000  -7826.9953      112.30949     -7939.3048      0.61640401     222.8428       285.76137      306.6861       300.84327      294.0805       40522.229      25244.733      60           
   1591000  -7828.0559      110.85538     -7938.9113      0.61640401     219.95757      281.0487       296.91398      303.78179      297.35711      40727.243      25372.454      52           
   1592000  -7830.1778      111.02266     -7941.2005      0.61640401     220.28948      324.59653      300.37553      295.62416      305.29928      40409.457      25174.478      58           
   1593000  -7828.8951      112.84616     -7941.7413      0.61640401     223.90764      256.80267      306.50528      302.02658      312.54922      40608.18       25298.279      55           
   1594000  -7829.4375      111.48131     -7940.9188      0.61640401     221.19953      300.12335      299.82337      298.3616       316.88523      40749.56       25386.357      52           
   1595000  -7831.2385      110.58748     -7941.826       0.61640401     219.42601      327.27927      294.60576      299.91626      308.79551      40526.104      25247.147      57           
   1596000  -7830.8224      110.12887     -7940.9512      0.61640401     218.51603      341.81289      297.61358      293.08367      301.39957      40549.358      25261.634      56           
   1597000  -7825.7064      112.1329      -7937.8393      0.61640401     222.49241      271.29926      304.47155      304.31311      290.54931      40450.907      25200.301      50           
   1598000  -7829.1711      112.52758     -7941.6986      0.61640401     223.27551      246.55778      309.48321      301.54541      287.47005      40758.452      25391.897      46           
   1599000  -7830.4574      109.62437     -7940.0818      0.61640401     217.51502      282.10178      294.92606      297.93428      295.15777      40478.377      25217.414      49           
   1600000  -7827.4428      111.43331     -7938.8761      0.61640401     221.10428      315.52302      305.56706      293.25065      299.03104      40671.951      25338.008      43           
   1601000  -7829.1409      110.97276     -7940.1137      0.61640401     220.19048      323.70114      300.52302      297.48876      296.1786       40325.931      25122.443      51           
   1602000  -7827.3229      112.75714     -7940.0801      0.61640401     223.73101      308.12528      302.92109      306.99746      300.76358      40890.697      25474.283      43           
   1603000  -7831.9345      109.07026     -7941.0047      0.61640401     216.41555      308.8739       293.75238      292.62852      301.87976      40393.256      25164.385      44           
   1604000  -7833.3153      111.25855     -7944.5738      0.61640401     220.75754      334.07211      301.37984      296.81748      299.65849      40518.545      25242.438      56           
   1605000  -7830.6214      110.16665     -7940.7881      0.61640401     218.591        234.06239      296.21334      304.14849      289.42793      40703.667      25357.766      56           
   1606000  -7829.971       109.51475     -7939.4858      0.61640401     217.29752      283.66005      296.74317      297.35126      283.14907      40462.257      25207.371      57           
   1607000  -7826.6564      112.30564     -7938.962       0.61640401     222.83514      265.44452      312.977        294.43713      285.24806      40617.184      25303.889      52           
   1608000  -7829.649       109.66597     -7939.315       0.61640401     217.59756      371.57142      291.41703      301.61793      282.4486       40451.426      25200.624      59           
   1609000  -7831.9696      109.03695     -7941.0066      0.61640401     216.34945      316.34681      291.84004      297.79152      289.98805      40859.839      25455.059      50           
   1610000  -7831.7149      111.69461     -7943.4095      0.61640401     221.62275      344.73335      303.43739      299.59216      288.11251      40414.625      25177.697      49           
   1611000  -7826.0285      114.60948     -7940.638       0.61640401     227.4064       393.57848      307.21773      312.89467      289.16735      40758.207      25391.744      54           
   1612000  -7828.8287      111.06066     -7939.8894      0.61640401     220.36487      334.45546      301.37049      297.58884      290.94129      40588.261      25285.87       53           
   1613000  -7826.9447      113.54977     -7940.4945      0.61640401     225.30374      378.7556       309.67425      302.19127      288.6054       40395.295      25165.655      55           
   1614000  -7826.9855      113.88196     -7940.8675      0.61640401     225.96285      345.57258      313.92275      301.07476      285.03         40629.318      25311.448      53           
   1615000  -7827.6983      110.47874     -7938.1771      0.61640401     219.21025      309.30928      296.00745      303.64602      286.12538      40421.315      25181.865      54           
   1616000  -7831.2455      110.55744     -7941.803       0.61640401     219.3664       253.59452      297.08999      305.55047      285.73193      40715.879      25365.374      54           
   1617000  -7829.3384      110.90685     -7940.2453      0.61640401     220.0597       258.8896       305.10279      296.28445      284.19205      40329.444      25124.631      53           
   1618000  -7833.6773      108.61559     -7942.2929      0.61640401     215.5134       312.47191      294.01828      293.04949      283.55084      40657.326      25328.897      53           
   1619000  -7830.2523      110.55821     -7940.8105      0.61640401     219.36793      290.67379      294.37158      307.20899      287.83046      40597.086      25291.368      47           
   1620000  -7832.6588      109.90255     -7942.5613      0.61640401     218.06698      323.08692      292.18195      303.47927      289.45992      40415.585      25178.295      54           
   1621000  -7829.1955      114.40349     -7943.599       0.61640401     226.99767      343.51692      313.63067      303.94025      290.59871      40409.744      25174.657      57           
   1622000  -7830.8064      110.2595      -7941.0659      0.61640401     218.77524      258.83613      309.1495       282.83947      295.17563      40577.883      25279.405      55           
   1623000  -7829.0773      110.44674     -7939.524       0.61640401     219.14675      295.9692       300.37474      295.36042      295.08166      40677.709      25341.594      55           
   1624000  -7834.2781      110.13259     -7944.4107      0.61640401     218.52342      267.61054      300.48701      293.98396      296.27315      40350.864      25137.975      53           
   1625000  -7826.6786      113.02652     -7939.7051      0.61640401     224.26551      264.96525      305.79166      308.54657      294.22242      40524.804      25246.337      54           
   1626000  -7829.7128      110.51919     -7940.232       0.61640401     219.2905       303.84261      301.41583      294.36159      293.55832      40523.478      25245.511      56           
   1627000  -7828.8685      111.22614     -7940.0946      0.61640401     220.69322      301.78226      297.89054      304.41935      296.0026       40632.28       25313.293      53           
   1628000  -7830.7016      110.03511     -7940.7367      0.61640401     218.33         318.12884      297.61078      295.53435      293.76575      40378.704      25155.319      57           
   1629000  -7826.725       112.81796     -7939.543       0.61640401     223.85169      408.09792      297.97376      311.1114       293.93033      40448.889      25199.043      56           
   1630000  -7828.4192      113.32729     -7941.7464      0.61640401     224.86228      388.3232       305.18141      304.67917      301.94782      40571.684      25275.543      39           
   1631000  -7833.3699      109.73751     -7943.1074      0.61640401     217.7395       393.87653      298.14005      286.34261      304.4791       40440.719      25193.953      50           
   1632000  -7829.5108      111.75918     -7941.27        0.61640401     221.75087      347.05443      300.0767       299.83617      307.84652      40586.94       25285.047      56           
   1633000  -7825.8633      113.04156     -7938.9049      0.61640401     224.29535      303.23981      303.62001      306.83558      306.62476      40500.068      25230.927      61           
   1634000  -7828.945       112.08131     -7941.0263      0.61640401     222.39003      268.73684      298.59084      308.46058      309.12287      40442.579      25195.113      60           
   1635000  -7831.8514      109.23601     -7941.0874      0.61640401     216.74444      331.46515      279.07147      314.56582      301.75         40479.557      25218.149      52           
   1636000  -7829.4259      113.04408     -7942.47        0.61640401     224.30036      321.0811       297.30164      316.49744      302.11588      40593.484      25289.124      52           
   1637000  -7832.2124      111.10971     -7943.3221      0.61640401     220.46219      307.93313      298.94598      300.65003      299.85521      40431.078      25187.947      59           
   1638000  -7831.9592      110.12925     -7942.0884      0.61640401     218.51679      323.4481       286.40698      311.63952      296.53327      40305.324      25109.605      66           
   1639000  -7831.1592      110.92254     -7942.0817      0.61640401     220.09082      301.40827      296.32711      303.67046      299.27253      40606.995      25297.541      53           
   1640000  -7831.9866      110.8894      -7942.876       0.61640401     220.02506      328.88529      303.05184      291.64252      300.54938      40318.349      25117.719      55           
   1641000  -7829.9422      110.64527     -7940.5874      0.61640401     219.54067      399.61239      295.8659       296.17207      305.01908      40625.546      25309.098      50           
   1642000  -7828.759       110.18848     -7938.9475      0.61640401     218.6343       401.22117      294.74039      293.7673       306.70483      40397.258      25166.878      51           
   1643000  -7830.7025      111.1383      -7941.8408      0.61640401     220.51893      346.86229      301.53332      295.14719      300.71452      40385.867      25159.781      47           
   1644000  -7828.0072      111.91139     -7939.9186      0.61640401     222.05289      298.12212      305.95738      297.83636      295.62241      40622.952      25307.482      43           
   1645000  -7829.4071      110.38249     -7939.7896      0.61640401     219.01926      323.59036      300.07736      294.87874      292.25952      40374.985      25153.002      45           
   1646000  -7825.9422      115.00405     -7940.9463      0.61640401     228.18929      411.62234      311.61358      308.66783      291.38949      40565.503      25271.692      47           
   1647000  -7824.2423      115.40442     -7939.6467      0.61640401     228.9837       379.43446      310.55378      315.28889      290.54602      40555.355      25265.37       42           
   1648000  -7827.212       112.32435     -7939.5363      0.61640401     222.87226      352.09399      302.92313      302.77915      295.16686      40605.766      25296.775      55           
   1649000  -7826.4337      112.23182     -7938.6656      0.61640401     222.68867      374.00258      307.39728      293.78326      298.78923      40352.633      25139.077      49           
   1650000  -7831.7145      110.41546     -7942.1299      0.61640401     219.08468      334.68522      294.40452      301.03368      299.82981      40722.634      25369.582      49           
   1651000  -7835.1666      106.43684     -7941.6035      0.61640401     211.19036      315.5902       285.58438      286.74711      293.62718      40350.522      25137.762      46           
   1652000  -7828.6822      111.77844     -7940.4607      0.61640401     221.78909      348.73486      302.98087      300.13123      290.03405      40539.631      25255.574      53           
   1653000  -7829.5505      109.79882     -7939.3494      0.61640401     217.86115      335.41608      298.86504      292.84765      288.21137      40535.52       25253.013      44           
   1654000  -7827.7195      111.16996     -7938.8894      0.61640401     220.58176      318.85562      296.34185      307.16565      289.18661      40400.148      25168.679      52           
   1655000  -7832.1515      109.91891     -7942.0705      0.61640401     218.09943      382.52575      297.32648      292.69244      292.03715      40664.717      25333.501      49           
   1656000  -7829.7748      108.52652     -7938.3013      0.61640401     215.33667      283.41454      297.33741      286.07         294.94401      40299.208      25105.794      49           
   1657000  -7831.6746      109.0423      -7940.7169      0.61640401     216.36007      293.72916      295.62138      289.84478      303.73929      40628.242      25310.777      53           
   1658000  -7830.5859      111.34142     -7941.9274      0.61640401     220.92195      339.73892      294.31528      308.37851      298.13181      40300.015      25106.297      48           
   1659000  -7832.4836      107.84852     -7940.3321      0.61640401     213.9914       312.95638      301.85488      273.78727      290.61135      40874.513      25464.201      59           
   1660000  -7830.1496      110.49268     -7940.6423      0.61640401     219.2379       336.83047      297.91361      300.0422       284.20227      40300.585      25106.652      52           
   1661000  -7830.4934      110.0001      -7940.4935      0.61640401     218.26053      340.00018      295.43368      300.75014      278.99346      40719.258      25367.479      59           
   1662000  -7828.6337      111.68856     -7940.3222      0.61640401     221.61075      355.43069      303.54087      300.73826      278.05751      40464.474      25208.752      59           
   1663000  -7830.7305      112.28384     -7943.0143      0.61640401     222.79189      334.63979      305.19825      303.15605      281.64969      40276.676      25091.757      57           
   1664000  -7826.718       110.68556     -7937.4035      0.61640401     219.6206       335.08202      298.49295      299.47683      288.2963       40726.828      25372.195      57           
   1665000  -7829.1961      112.3261      -7941.5222      0.61640401     222.87575      316.42274      295.9597       314.39047      297.32925      40633.672      25314.16       59           
   1666000  -7832.6112      108.21862     -7940.8298      0.61640401     214.72575      311.33441      285.16268      298.28986      304.17645      40723.99       25370.427      54           
   1667000  -7829.4083      112.11084     -7941.5192      0.61640401     222.44864      315.03655      307.9788       292.75306      306.47662      40235.305      25065.984      55           
   1668000  -7827.9275      111.8843      -7939.8118      0.61640401     221.99913      321.47435      302.10379      300.58572      302.69257      40822.123      25431.563      45           
   1669000  -7828.6956      110.04455     -7938.7402      0.61640401     218.34873      335.54795      293.48949      300.31414      297.96154      40225.499      25059.874      42           
   1670000  -7829.165       112.74194     -7941.907       0.61640401     223.70086      353.97241      307.42326      299.09585      296.26         40703.706      25357.79       49           
   1671000  -7833.1401      108.80263     -7941.9427      0.61640401     215.88452      349.10196      293.98682      290.33091      293.27904      40688.699      25348.441      52           
   1672000  -7829.0071      110.13614     -7939.1432      0.61640401     218.53047      347.67473      294.77208      299.78846      290.94188      40567.72       25273.073      53           
   1673000  -7832.2117      107.88919     -7940.1009      0.61640401     214.0721       354.00911      291.53904      285.25406      299.06761      40326.579      25122.846      55           
   1674000  -7829.0776      111.85567     -7940.9333      0.61640401     221.94232      312.69022      300.66415      301.77328      307.19982      40503.474      25233.049      45           
   1675000  -7827.3891      113.81477     -7941.2039      0.61640401     225.82955      286.65015      307.59978      304.58369      317.92692      40800.443      25418.056      47           
   1676000  -7830.1803      111.22259     -7941.4029      0.61640401     220.68618      337.85935      291.94888      305.59003      319.47205      40362.992      25145.531      52           
   1677000  -7828.2997      114.48294     -7942.7826      0.61640401     227.15532      270.30593      309.79124      307.2994       316.58582      40656.604      25328.447      44           
   1678000  -7827.4566      112.73804     -7940.1946      0.61640401     223.69311      342.98378      303.6394       300.82649      314.34851      40384.216      25158.753      45           
   1679000  -7827.896       112.31188     -7940.2078      0.61640401     222.84752      299.43733      296.72056      311.37129      308.30916      41008.032      25547.381      46           
   1680000  -7824.5996      114.61821     -7939.2178      0.61640401     227.4237       336.7426       308.85406      310.34344      302.30393      40379.52       25155.828      50           
   1681000  -7829.0448      111.47977     -7940.5246      0.61640401     221.19647      322.18083      301.26091      299.18712      300.2812       40605.657      25296.708      54           
   1682000  -7829.3359      111.76451     -7941.1005      0.61640401     221.76145      334.86937      309.15745      288.78886      300.93632      40783.301      25407.377      53           
   1683000  -7826.4993      113.47609     -7939.9754      0.61640401     225.15753      420.74605      311.2674       293.6317       305.40373      40409.277      25174.366      48           
   1684000  -7826.1356      112.44782     -7938.5835      0.61640401     223.11727      353.72086      298.12672      308.3098       307.43484      40609.539      25299.126      42           
   1685000  -7829.8903      112.39877     -7942.2891      0.61640401     223.01994      342.42958      303.91508      299.51202      307.6457       40556.734      25266.229      47           
   1686000  -7832.8859      109.98069     -7942.8666      0.61640401     218.22202      309.28712      299.98939      289.17461      305.63421      40561.27       25269.055      44           
   1687000  -7830.1418      111.03922     -7941.181       0.61640401     220.32235      292.90482      296.88695      303.41825      302.1074       40370.933      25150.478      51           
   1688000  -7826.9781      111.80889     -7938.787       0.61640401     221.84951      244.9382       307.45339      296.45929      299.86779      40759.998      25392.859      52           
   1689000  -7829.9277      109.57879     -7939.5065      0.61640401     217.42458      269.82712      295.93663      296.52118      295.61094      40413.694      25177.117      48           
   1690000  -7833.3813      109.56239     -7942.9437      0.61640401     217.39202      301.85755      296.79892      293.80474      294.87165      40574.497      25277.295      54           
   1691000  -7830.9005      111.91836     -7942.8189      0.61640401     222.06671      303.8318       299.61393      308.09567      291.76581      40373.215      25151.9        46           
   1692000  -7829.4869      113.08159     -7942.5685      0.61640401     224.37477      276.83902      310.10411      301.21145      296.3696       40498.527      25229.967      45           
   1693000  -7832.9157      111.96866     -7944.8843      0.61640401     222.16653      354.28396      300.53735      302.39766      300.89789      40743.23       25382.413      49           
   1694000  -7829.8719      113.87859     -7943.7505      0.61640401     225.95616      250.09485      303.68398      316.82276      300.40937      40520.489      25243.649      44           
   1695000  -7832.8524      108.51479     -7941.3672      0.61640401     215.3134       313.4098       291.06227      292.83935      299.33836      40402.649      25170.237      47           
   1696000  -7830.3835      111.02327     -7941.4068      0.61640401     220.29069      355.60135      298.45988      302.10229      285.83089      40748.591      25385.753      49           
   1697000  -7829.964       109.84612     -7939.8101      0.61640401     217.95501      350.07867      297.61731      294.93357      282.9941       40603.39       25295.295      57           
   1698000  -7828.1704      110.35875     -7938.5291      0.61640401     218.97215      249.61392      298.94044      301.5525       285.51511      40455.062      25202.889      53           
   1699000  -7831.975       109.29019     -7941.2652      0.61640401     216.85195      275.24393      293.62133      298.84052      291.01821      40603.111      25295.122      56           
   1700000  -7831.7027      107.71605     -7939.4188      0.61640401     213.72855      315.21404      289.07612      291.00825      294.23764      40558.788      25267.509      48           
   1701000  -7829.4569      112.03242     -7941.4893      0.61640401     222.29303      266.25115      304.49944      300.44253      303.03088      40299.345      25105.88       46           
   1702000  -7830.0597      110.80572     -7940.8654      0.61640401     219.85903      326.14469      300.09508      294.11981      306.92584      40537.921      25254.509      48           
   1703000  -7831.5595      112.6557      -7944.2152      0.61640401     223.52974      319.08035      299.22749      307.60585      315.33081      40663.009      25332.437      45           
   1704000  -7831.4567      110.91739     -7942.3741      0.61640401     220.0806       367.21849      288.4941       308.95427      310.52846      40444.115      25196.069      56           
   1705000  -7831.6804      109.602       -7941.2824      0.61640401     217.47063      263.6822       301.65164      287.60222      299.29023      40746.352      25384.358      50           
   1706000  -7828.8271      111.64144     -7940.4686      0.61640401     221.51724      326.30711      302.39923      300.28044      292.43358      40328.568      25124.085      59           
   1707000  -7830.1256      110.04037     -7940.166       0.61640401     218.34044      299.22351      303.71178      287.32305      294.50863      40602.175      25294.538      54           
   1708000  -7832.941       108.49092     -7941.432       0.61640401     215.26604      276.04947      288.0692       299.80169      296.18112      40630.993      25312.491      56           
   1709000  -7830.6369      111.70071     -7942.3376      0.61640401     221.63485      282.31653      296.87554      308.99168      302.48008      40319.524      25118.451      59           
   1710000  -7831.2657      111.31141     -7942.5772      0.61640401     220.86241      260.80135      301.38064      298.70614      310.40003      40332.272      25126.393      60           
   1711000  -7829.8352      113.3429      -7943.1781      0.61640401     224.89327      306.96349      306.12645      304.18411      310.73671      40606.587      25297.287      58           
   1712000  -7831.4998      110.79401     -7942.2938      0.61640401     219.83579      267.96731      297.14916      299.02013      318.61306      40667.633      25335.317      67           
   1713000  -7825.3906      114.84655     -7940.2372      0.61640401     227.87679      299.01932      306.04514      312.36763      326.89318      40317.762      25117.353      67           
   1714000  -7829.708       112.14221     -7941.8502      0.61640401     222.51088      290.29107      299.39404      305.23593      316.2551       40763.94       25395.315      79           
   1715000  -7828.8092      112.65671     -7941.4659      0.61640401     223.53174      310.83965      304.51591      300.93318      311.89484      40399.46       25168.25       69           
   1716000  -7828.4596      112.32198     -7940.7815      0.61640401     222.86758      295.92526      301.114        304.19584      313.6342       40567.598      25272.997      72           
   1717000  -7828.6864      113.89714     -7942.5836      0.61640401     225.99298      257.16989      311.85198      300.63481      324.70724      40607.258      25297.705      80           
   1718000  -7830.7526      110.88061     -7941.6333      0.61640401     220.00763      260.24832      303.2599       288.84908      331.78758      40548.644      25261.189      79           
   1719000  -7832.8727      111.66135     -7944.5341      0.61640401     221.55675      231.38392      298.04875      301.67234      341.16615      40845.586      25446.179      70           
   1720000  -7832.1967      110.30436     -7942.501       0.61640401     218.86424      270.62674      295.96336      292.00271      341.25909      40178.068      25030.326      70           
   1721000  -7832.3381      110.1949      -7942.533       0.61640401     218.64704      304.62304      294.01961      294.38761      330.99347      40769.6        25398.842      71           
   1722000  -7834.2941      108.94362     -7943.2377      0.61640401     216.16429      283.13963      287.28473      297.29929      327.59615      40703.976      25357.959      75           
   1723000  -7830.5699      113.81168     -7944.3816      0.61640401     225.8234       355.62393      305.25669      305.97744      305.44608      40825.667      25433.771      91           
   1724000  -7831.3065      112.02699     -7943.3335      0.61640401     222.28225      338.68143      298.00119      305.40995      303.61509      40275.858      25091.247      86           
   1725000  -7831.0346      112.53657     -7943.5712      0.61640401     223.29335      246.48172      305.46603      301.87209      316.59014      40670.137      25336.877      70           
   1726000  -7831.4773      109.03201     -7940.5094      0.61640401     216.33965      271.93796      290.16101      296.1618       319.40824      40620.425      25305.907      76           
   1727000  -7831.2199      110.49922     -7941.7192      0.61640401     219.25088      268.76161      296.39131      295.97993      329.79709      40415.751      25178.399      79           
   1728000  -7829.127       111.52592     -7940.6529      0.61640401     221.28804      247.76431      306.84106      287.88602      337.05376      40802.659      25419.436      73           
   1729000  -7829.8732      113.23527     -7943.1084      0.61640401     224.6797       285.13304      298.42524      309.74434      341.66379      40388.475      25161.407      77           
   1730000  -7834.3834      110.80456     -7945.188       0.61640401     219.85672      297.39436      295.23732      295.96214      339.07104      40781.342      25406.157      79           
   1731000  -7827.006       113.6018      -7940.6078      0.61640401     225.40697      273.11181      307.15444      303.34131      329.20512      40138.292      25005.546      83           
   1732000  -7831.6059      111.40814     -7943.014       0.61640401     221.05434      329.84274      293.0513       306.28618      314.75318      40628.009      25310.632      91           
   1733000  -7832.2787      110.98983     -7943.2685      0.61640401     220.22434      321.53022      291.40805      306.37975      315.67079      40285.38       25097.18       77           
   1734000  -7828.2824      113.68309     -7941.9655      0.61640401     225.56827      290.06136      307.88335      304.91286      313.23606      40925.598      25496.026      78           
   1735000  -7829.2242      111.27562     -7940.4999      0.61640401     220.7914       251.64758      295.87183      305.63498      321.44333      40323.744      25121.08       76           
   1736000  -7828.9725      112.34657     -7941.3191      0.61640401     222.91635      270.4398       302.81713      301.06729      324.26135      40454.135      25202.312      71           
   1737000  -7828.1961      111.53132     -7939.7274      0.61640401     221.29876      319.92622      299.87477      292.39111      340.09976      40548.54       25261.124      72           
   1738000  -7830.6958      111.67165     -7942.3675      0.61640401     221.5772       294.02051      302.46341      291.38594      339.36447      40543.584      25258.037      71           
   1739000  -7829.424       111.79355     -7941.2175      0.61640401     221.81908      274.20969      296.68271      303.16675      334.41571      40660.145      25330.652      65           
   1740000  -7831.2516      111.75496     -7943.0065      0.61640401     221.7425       277.35961      302.05066      295.51321      332.1286       40276.008      25091.341      72           
   1741000  -7827.8882      114.54916     -7942.4374      0.61640401     227.28671      274.70781      306.3096       312.02912      324.75102      40837.242      25440.981      71           
   1742000  -7831.0172      111.50872     -7942.526       0.61640401     221.25392      289.75511      299.98621      299.68772      315.54952      40245.876      25072.569      72           
   1743000  -7833.5769      106.75088     -7940.3278      0.61640401     211.81349      265.59459      285.51672      287.12681      315.40492      40670.162      25336.893      71           
   1744000  -7828.5528      111.33274     -7939.8856      0.61640401     220.90474      311.24696      298.66072      301.52937      303.3989       40394.306      25165.039      80           
   1745000  -7828.4758      112.1265      -7940.6023      0.61640401     222.4797       302.80918      308.31195      291.11945      315.46295      40646.349      25322.058      82           
   1746000  -7831.357       111.70213     -7943.0592      0.61640401     221.63768      289.84731      302.09177      297.80689      317.06176      40493.735      25226.982      79           
   1747000  -7832.0496      110.5694      -7942.619       0.61640401     219.39013      298.44119      295.30408      295.72134      330.95015      40518.88       25242.647      79           
   1748000  -7831.3341      110.81416     -7942.1482      0.61640401     219.87578      299.51882      302.76274      285.99211      332.13299      40674.505      25339.599      75           
   1749000  -7829.3661      111.18378     -7940.5498      0.61640401     220.60916      299.47771      300.22034      290.76877      340.19034      40407.341      25173.159      73           
   1750000  -7826.545       113.89201     -7940.437       0.61640401     225.98281      307.47476      306.50082      301.36237      338.50176      40666.14       25334.387      70           
   1751000  -7829.017       114.41375     -7943.4308      0.61640401     227.01804      317.25471      306.38579      305.6482       335.23476      40455.451      25203.131      72           
   1752000  -7832.7668      110.05211     -7942.8189      0.61640401     218.36372      316.22876      298.50901      284.45478      335.57143      40589.052      25286.363      73           
   1753000  -7830.0565      110.79523     -7940.8517      0.61640401     219.83822      259.52994      292.02089      302.91469      335.86141      40551.361      25262.882      63           
   1754000  -7831.2927      109.50754     -7940.8002      0.61640401     217.2832       290.53807      296.07549      285.39322      335.17642      40627.534      25310.337      62           
   1755000  -7826.6084      113.07947     -7939.6878      0.61640401     224.37057      287.7374       302.19764      302.69434      336.82093      40660.03       25330.581      55           
   1756000  -7828.8032      111.07819     -7939.8814      0.61640401     220.39966      293.28405      291.99539      298.62509      352.03067      40413.726      25177.138      50           
   1757000  -7828.0127      111.38747     -7939.4001      0.61640401     221.01333      292.71011      293.87678      297.80645      354.74296      40680.198      25343.146      61           
   1758000  -7828.7234      113.67433     -7942.3977      0.61640401     225.55088      273.88291      299.08854      307.28709      359.65413      40727.501      25372.615      61           
   1759000  -7829.5608      110.99126     -7940.5521      0.61640401     220.22718      294.66764      295.88886      291.81708      354.58428      40651.302      25325.144      64           
   1760000  -7829.453       112.19375     -7941.6468      0.61640401     222.61314      272.66997      297.65236      301.60109      345.98846      40441.171      25194.235      57           
   1761000  -7827.9546      111.67033     -7939.625       0.61640401     221.57458      283.23712      301.29021      293.51932      337.91341      40548.355      25261.009      59           
   1762000  -7826.302       113.87342     -7940.1754      0.61640401     225.94591      267.93424      306.0405       303.66258      339.14392      40643.2        25320.096      61           
   1763000  -7832.8336      108.65137     -7941.4849      0.61640401     215.58441      231.05975      283.38016      300.38069      337.22592      40314.837      25115.531      55           
   1764000  -7829.7695      110.33702     -7940.1065      0.61640401     218.92905      297.10704      290.7898       298.19961      338.93069      40786.066      25409.099      57           
   1765000  -7827.0271      112.00496     -7939.032       0.61640401     222.23854      238.05744      295.93853      303.9437       344.25786      40499.691      25230.692      45           
   1766000  -7828.1595      112.66582     -7940.8253      0.61640401     223.54982      274.16082      302.88953      293.98896      356.99653      40744.786      25383.382      52           
   1767000  -7828.3086      113.26385     -7941.5724      0.61640401     224.73642      293.84707      300.22691      300.38396      361.61627      40396.996      25166.715      51           
   1768000  -7831.8173      112.16694     -7943.9842      0.61640401     222.55995      268.24839      303.523        290.35223      353.1103       40592.327      25288.403      49           
   1769000  -7832.5048      111.87989     -7944.3847      0.61640401     221.99039      289.99834      294.6496       298.69787      361.01066      40301.677      25107.332      52           
   1770000  -7828.8053      110.78742     -7939.5927      0.61640401     219.82272      294.52085      291.22749      296.02864      357.81308      40641.949      25319.317      49           
   1771000  -7829.3106      112.5805      -7941.8911      0.61640401     223.38052      247.21863      297.56481      302.56838      357.27198      40709.302      25361.276      50           
   1772000  -7824.1388      115.0613      -7939.2001      0.61640401     228.3029       295.91006      311.92595      298.60252      352.93221      40424.699      25183.973      52           
   1773000  -7820.7968      116.23343     -7937.0302      0.61640401     230.62861      361.62623      312.55914      306.16027      340.78219      40614.88       25302.453      53           
   1774000  -7825.9929      115.17566     -7941.1686      0.61640401     228.5298       321.90942      304.38129      310.51692      347.79935      40221.289      25057.252      48           
   1775000  -7829.1531      114.01171     -7943.1649      0.61640401     226.22031      311.67379      309.27764      293.67581      353.07251      40801.329      25418.608      50           
   1776000  -7831.9929      112.35866     -7944.3516      0.61640401     222.94035      293.04921      298.50143      296.09248      361.36966      40290.536      25100.392      45           
   1777000  -7825.4299      114.81228     -7940.2422      0.61640401     227.80878      304.75595      304.97905      303.9734       363.8618       40739.021      25379.791      55           
   1778000  -7824.9315      114.61069     -7939.5422      0.61640401     227.4088       274.20263      300.38591      311.25409      361.55128      40393.691      25164.656      51           
   1779000  -7829.7408      111.87657     -7941.6173      0.61640401     221.98379      301.97412      298.08429      293.65225      357.11221      40719.149      25367.411      46           
   1780000  -7828.9395      112.47879     -7941.4183      0.61640401     223.17871      304.07402      296.52616      302.06272      351.69127      40525.606      25246.837      52           
   1781000  -7829.1102      111.64302     -7940.7532      0.61640401     221.52039      295.8745       293.52347      300.43596      353.47032      40433.063      25189.184      62           
   1782000  -7826.8011      114.28373     -7941.0849      0.61640401     226.76005      330.98689      299.80161      310.89127      345.86692      40810.106      25424.076      67           
   1783000  -7825.5798      113.62207     -7939.2019      0.61640401     225.44719      384.04034      300.38661      303.30772      339.45032      40335.601      25128.467      65           
   1784000  -7829.1088      112.02192     -7941.1307      0.61640401     222.2722       371.34282      295.30602      301.61413      331.37908      40759.156      25392.335      62           
   1785000  -7829.9508      111.59764     -7941.5484      0.61640401     221.43035      310.71774      297.01643      298.51633      335.55411      40468.185      25211.065      67           
   1786000  -7830.3315      111.46402     -7941.7956      0.61640401     221.16521      329.29756      293.10154      302.98973      332.82843      40632.563      25313.469      58           
   1787000  -7829.548       112.43118     -7941.9792      0.61640401     223.08424      301.48047      307.98287      289.63285      333.63577      40355.942      25141.139      70           
   1788000  -7828.3495      113.81641     -7942.1659      0.61640401     225.83279      282.89279      309.26381      299.79291      330.80208      40779.019      25404.71       63           
   1789000  -7827.6592      112.90455     -7940.5637      0.61640401     224.02349      263.90487      304.6581       301.33847      329.72004      40546.23       25259.685      67           
   1790000  -7827.9399      112.91138     -7940.8513      0.61640401     224.03705      286.37674      302.87985      302.22992      331.58092      40703.567      25357.704      65           
   1791000  -7827.2244      113.53348     -7940.7579      0.61640401     225.27142      285.55806      306.94245      299.60308      337.85357      40649.366      25323.938      66           
   1792000  -7826.7306      113.30917     -7940.0398      0.61640401     224.82635      307.33903      302.54238      301.84658      342.6141       40499.229      25230.404      65           
   1793000  -7828.2648      113.37712     -7941.642       0.61640401     224.96117      281.94774      299.11907      308.74109      345.28061      40394.902      25165.41       73           
   1794000  -7834.7128      112.31958     -7947.0323      0.61640401     222.86281      266.12134      303.65749      295.23847      343.17528      40541.436      25256.699      69           
   1795000  -7831.4482      108.68572     -7940.1339      0.61640401     215.65256      256.68057      284.53466      298.62801      335.50696      40745.287      25383.695      64           
   1796000  -7826.1173      112.94628     -7939.0636      0.61640401     224.1063       274.9567       296.33216      313.95406      326.37576      40322.304      25120.183      59           
   1797000  -7827.8503      111.7018      -7939.5521      0.61640401     221.63703      283.92603      304.85618      292.72281      321.77859      40607.39       25297.787      71           
   1798000  -7832.0504      110.11271     -7942.1631      0.61640401     218.48396      297.27628      294.4368       296.5515       316.03208      40458.326      25204.922      60           
   1799000  -7826.1996      112.99658     -7939.1961      0.61640401     224.2061       309.10425      307.37599      297.80275      318.45153      40740.504      25380.715      68           
   1800000  -7829.3073      111.26281     -7940.5701      0.61640401     220.76599      310.28197      298.80647      294.38687      332.26568      40363.556      25145.882      68           
   1801000  -7825.4315      114.85763     -7940.2891      0.61640401     227.89877      326.64451      302.91174      313.96497      333.01901      40526.258      25247.243      71           
   1802000  -7828.6965      112.67696     -7941.3735      0.61640401     223.57191      309.03503      307.31773      291.20378      336.92872      40771.441      25399.989      68           
   1803000  -7830.2691      111.65915     -7941.9283      0.61640401     221.5524       289.85537      304.63108      288.32577      339.63517      40547.371      25260.396      74           
   1804000  -7831.5337      110.56131     -7942.095       0.61640401     219.37407      332.09448      298.39654      288.917        328.27119      40360.116      25143.739      77           
   1805000  -7826.2434      112.05903     -7938.3024      0.61640401     222.34583      255.11441      306.48173      292.56284      331.46042      40328.983      25124.344      69           
   1806000  -7830.5661      110.22068     -7940.7868      0.61640401     218.69821      280.64318      296.89267      292.13944      326.69342      40762.606      25394.484      62           
   1807000  -7828.5945      112.82988     -7941.4244      0.61640401     223.87534      301.95586      296.60389      311.25126      325.3537       40554.036      25264.549      59           
   1808000  -7830.2248      111.16015     -7941.385       0.61640401     220.56227      344.48682      306.39243      282.70434      320.56676      40490.552      25224.999      65           
   1809000  -7830.5006      112.21277     -7942.7134      0.61640401     222.65088      333.18306      298.93744      301.36305      324.99896      40567.914      25273.194      64           
   1810000  -7827.0616      114.29287     -7941.3545      0.61640401     226.77819      338.32552      307.02723      306.04897      319.80927      40623.389      25307.754      58           
   1811000  -7829.8754      112.17311     -7942.0485      0.61640401     222.57218      346.4502       302.08884      297.04521      319.44818      40369.388      25149.516      60           
   1812000  -7828.5098      111.62703     -7940.1368      0.61640401     221.48866      315.5188       302.04281      296.01643      314.40926      40574.495      25277.294      58           
   1813000  -7831.9199      108.53398     -7940.4539      0.61640401     215.35147      333.98253      283.82101      299.25359      312.34143      40588.483      25286.008      62           
   1814000  -7829.9842      109.607       -7939.5912      0.61640401     217.48054      320.06598      284.94563      305.8861       314.84404      40489.767      25224.51       55           
   1815000  -7831.1149      110.37637     -7941.4913      0.61640401     219.00711      301.48476      300.55219      290.53519      310.40735      40552.201      25263.405      54           
   1816000  -7832.6002      109.63665     -7942.2368      0.61640401     217.53938      251.34003      299.6454       288.8722       309.73409      40579.02       25280.113      51           
   1817000  -7834.8091      108.3412      -7943.1503      0.61640401     214.96896      303.46963      290.43895      290.35747      309.51533      40589.355      25286.552      47           
   1818000  -7832.1851      108.23925     -7940.4243      0.61640401     214.76669      283.40024      287.91441      292.01131      317.8659       40487.771      25223.266      44           
   1819000  -7831.7683      110.06529     -7941.8336      0.61640401     218.38987      329.40159      289.6858       298.42865      328.16904      40576.865      25278.77       46           
   1820000  -7829.6679      112.11326     -7941.7811      0.61640401     222.45344      276.36836      295.53652      306.28988      332.70076      40532.613      25251.202      42           
   1821000  -7830.107       113.04427     -7943.1513      0.61640401     224.30072      307.04896      300.30479      304.54845      334.41187      40576.218      25278.367      47           
   1822000  -7830.3146      112.03627     -7942.3509      0.61640401     222.30066      270.74336      294.69977      307.23017      333.51029      40662.287      25331.987      48           
   1823000  -7828.0355      111.5654      -7939.6009      0.61640401     221.36638      369.12236      301.44985      291.80779      323.34097      40367.959      25148.625      48           
   1824000  -7829.2575      110.78239     -7940.0399      0.61640401     219.81273      283.85698      298.51545      294.65493      321.73992      40702.008      25356.733      52           
   1825000  -7830.5444      112.63075     -7943.1751      0.61640401     223.48022      325.95675      294.72393      310.88382      326.27693      40543.916      25258.244      57           
   1826000  -7830.1813      112.6059      -7942.7872      0.61640401     223.43091      289.52469      299.85031      305.90066      323.48916      40491.167      25225.382      61           
   1827000  -7832.2863      111.03342     -7943.3197      0.61640401     220.31082      261.52715      292.84456      305.19162      327.20356      40368.145      25148.741      62           
   1828000  -7828.6145      115.33566     -7943.9501      0.61640401     228.84726      261.03655      309.78561      311.23642      330.85664      40752.951      25388.469      56           
   1829000  -7831.0506      109.75762     -7940.8082      0.61640401     217.7794       282.72809      292.89532      292.27215      335.5921       40432.018      25188.533      60           
   1830000  -7828.7939      112.89484     -7941.6888      0.61640401     224.00423      270.23438      302.12708      303.25665      334.17068      40489.961      25224.63       59           
   1831000  -7829.7955      110.39936     -7940.1948      0.61640401     219.05274      333.863        289.05232      301.9335       326.46814      40688.442      25348.281      68           
   1832000  -7830.5978      110.50038     -7941.0982      0.61640401     219.25317      296.47603      289.36516      307.81722      313.2661       40214.422      25052.974      62           
   1833000  -7827.2102      113.65906     -7940.8693      0.61640401     225.52059      290.57249      303.21742      313.08674      305.87618      40633.282      25313.917      66           
   1834000  -7831.155       110.21655     -7941.3715      0.61640401     218.69001      303.47445      292.79855      301.6253       306.94226      40321.002      25119.372      66           
   1835000  -7824.8482      116.55552     -7941.4038      0.61640401     231.26769      314.07917      316.61923      314.94057      299.29155      40857.607      25453.669      67           
   1836000  -7827.792       113.26264     -7941.0546      0.61640401     224.73401      276.70414      305.47139      306.31502      310.72323      40438.2        25192.385      60           
   1837000  -7830.7992      109.46337     -7940.2626      0.61640401     217.19557      218.16796      293.2358       295.8584       323.52053      40731.681      25375.219      56           
   1838000  -7830.0796      112.36088     -7942.4404      0.61640401     222.94476      251.16054      303.6973       298.72829      331.2046       40226.979      25060.797      61           
   1839000  -7833.3674      111.8585      -7945.2259      0.61640401     221.94793      306.56296      299.9857       298.16794      327.9621       40745.833      25384.035      64           
   1840000  -7829.4209      114.87733     -7944.2982      0.61640401     227.93785      278.06203      313.34369      304.12981      322.07073      40519.43       25242.989      65           
   1841000  -7832.1285      111.35611     -7943.4846      0.61640401     220.95111      323.08914      298.93854      298.35618      313.4773       40371.176      25150.629      63           
   1842000  -7828.5832      111.77929     -7940.3625      0.61640401     221.79077      310.71427      303.71024      296.60655      307.37399      40632.647      25313.522      65           
   1843000  -7828.0916      111.54559     -7939.6372      0.61640401     221.32706      300.8839       306.74895      292.31944      301.34897      40466.616      25210.087      67           
   1844000  -7829.5453      112.55223     -7942.0976      0.61640401     223.32443      352.08994      303.44743      300.63142      304.08091      40644.935      25321.177      73           
   1845000  -7827.36        110.97705     -7938.3371      0.61640401     220.19897      290.09386      297.76779      301.47517      304.11274      40309.133      25111.977      65           
   1846000  -7833.7849      110.66077     -7944.4457      0.61640401     219.57142      334.63661      293.49313      302.49507      306.22322      40847.956      25447.656      57           
   1847000  -7831.9856      110.33238     -7942.318       0.61640401     218.91984      276.65367      298.36214      295.1274       311.61319      40190.325      25037.962      74           
   1848000  -7831.6238      112.78169     -7944.4055      0.61640401     223.77972      330.5814       304.53953      298.89741      318.60556      40578.573      25279.834      76           
   1849000  -7826.5436      112.19049     -7938.7341      0.61640401     222.60667      328.33751      306.26831      293.07202      314.08746      40597.369      25291.544      76           
   1850000  -7827.8722      111.57443     -7939.4467      0.61640401     221.38429      284.77965      305.59602      292.26136      316.0156       40357.537      25142.132      80           
   1851000  -7831.7057      110.47222     -7942.1779      0.61640401     219.1973       275.72931      305.60624      286.43711      307.40973      40711.465      25362.624      76           
   1852000  -7832.0576      107.47172     -7939.5293      0.61640401     213.24377      254.73186      289.94704      289.41048      304.12136      40333.825      25127.36       75           
   1853000  -7829.2311      111.75262     -7940.9837      0.61640401     221.73785      256.21005      302.60358      303.81982      298.69491      40808.525      25423.091      73           
   1854000  -7832.4783      109.47322     -7941.9516      0.61640401     217.21511      266.96922      292.7527       300.46642      299.3321       40339.774      25131.066      73           
   1855000  -7834.2916      108.76472     -7943.0564      0.61640401     215.80932      256.93519      294.48825      292.96595      300.62815      40625.201      25308.883      74           
   1856000  -7834.1598      108.47238     -7942.6322      0.61640401     215.22925      246.78051      286.92472      302.76105      299.32296      40416.66       25178.965      68           
   1857000  -7831.2466      110.81385     -7942.0604      0.61640401     219.87515      258.00458      302.89554      296.44339      295.6875       40771.286      25399.892      62           
   1858000  -7826.1843      111.03573     -7937.22        0.61640401     220.31541      269.46396      298.45448      305.58099      289.2818       40446.807      25197.746      60           
   1859000  -7831.902       108.89031     -7940.7923      0.61640401     216.0585       254.40501      289.4764       304.26864      286.40279      40498.717      25230.085      57           
   1860000  -7831.8122      108.94828     -7940.7605      0.61640401     216.17353      307.74878      292.52599      297.18087      286.38773      40566.637      25272.398      61           
   1861000  -7832.3226      110.32806     -7942.6507      0.61640401     218.91126      319.71747      300.8187       293.69281      289.83571      40249.805      25075.017      60           
   1862000  -7828.9869      111.76825     -7940.7552      0.61640401     221.76887      281.70036      303.32469      301.61194      295.53293      40805.356      25421.117      59           
   1863000  -7829.0495      112.61703     -7941.6666      0.61640401     223.45299      368.33238      296.36278      313.9591       295.03367      40493.987      25227.138      54           
   1864000  -7827.3859      113.10424     -7940.4901      0.61640401     224.41971      299.68329      305.20159      307.81502      295.6793       40658.905      25329.88       60           
   1865000  -7829.346       110.67078     -7940.0168      0.61640401     219.59128      325.26954      297.13155      300.69781      292.75489      40332.927      25126.801      62           
   1866000  -7832.184       111.5534      -7943.7374      0.61640401     221.34256      295.60871      305.69386      296.65397      291.24301      40706.123      25359.296      61           
   1867000  -7829.9906      109.66094     -7939.6515      0.61640401     217.58757      245.56575      295.98727      298.6286       296.55641      40803.394      25419.894      62           
   1868000  -7830.9814      110.48829     -7941.4696      0.61640401     219.22918      262.78988      306.82424      289.17214      289.64259      40347.884      25136.119      57           
   1869000  -7828.9026      113.53696     -7942.4396      0.61640401     225.27832      277.56759      311.79555      302.85503      293.99538      40734.641      25377.063      57           
   1870000  -7832.5699      108.79606     -7941.366       0.61640401     215.87149      286.20697      294.52399      291.72606      297.11221      40379.107      25155.57       60           
   1871000  -7833.7858      108.06497     -7941.8508      0.61640401     214.42088      255.06535      291.29586      293.63186      293.76782      40565.711      25271.822      60           
   1872000  -7827.6381      111.67338     -7939.3115      0.61640401     221.58064      289.39881      304.52882      297.68582      299.73657      40371.403      25150.771      62           
   1873000  -7830.4228      110.88408     -7941.3069      0.61640401     220.01452      205.11935      305.32223      295.42269      298.38567      40763.858      25395.264      57           
   1874000  -7832.5953      109.32329     -7941.9186      0.61640401     216.91762      288.29101      298.4699       291.12702      291.14978      40475.329      25215.515      58           
   1875000  -7826.4015      113.22998     -7939.6314      0.61640401     224.6692       296.25463      305.50553      309.47751      291.64836      40356.779      25141.66       57           
   1876000  -7828.3701      110.78487     -7939.155       0.61640401     219.81765      315.6553       301.80477      296.11526      289.27129      40571.501      25275.429      58           
   1877000  -7830.115       110.38329     -7940.4983      0.61640401     219.02084      292.53345      300.64027      295.78745      290.51727      40337.39       25129.581      52           
   1878000  -7832.115       111.17353     -7943.2885      0.61640401     220.58883      321.54168      308.09434      288.85938      291.78367      40756.428      25390.636      52           
   1879000  -7829.4492      112.74966     -7942.1988      0.61640401     223.71616      338.45691      303.8301       307.91653      284.8939       40371.85       25151.049      54           
   1880000  -7829.1118      112.10778     -7941.2196      0.61640401     222.44256      281.63942      306.49555      300.65683      290.51618      40488.467      25223.7        55           
   1881000  -7828.1566      112.78621     -7940.9428      0.61640401     223.78869      257.85815      309.99592      300.63551      295.04258      40681.616      25344.029      55           
   1882000  -7831.0116      111.23877     -7942.2503      0.61640401     220.71827      287.4192       303.27033      298.42113      290.90507      40655.571      25327.803      48           
   1883000  -7830.1653      112.05847     -7942.2238      0.61640401     222.34471      329.15267      294.18636      319.77623      274.14744      40442.202      25194.878      62           
   1884000  -7833.5265      111.28429     -7944.8108      0.61640401     220.8086       301.29275      304.16293      300.70204      273.76974      40554.132      25264.608      67           
   1885000  -7829.7385      111.42054     -7941.159       0.61640401     221.07895      256.69573      300.57487      310.75123      270.17407      40714.635      25364.599      67           
   1886000  -7833.1169      110.23814     -7943.355       0.61640401     218.73284      286.58706      300.82094      298.84541      273.7492       40284.365      25096.548      64           
   1887000  -7831.352       111.83679     -7943.1888      0.61640401     221.90486      291.24311      306.33426      301.89542      275.50748      40727.572      25372.659      57           
   1888000  -7831.0348      111.10408     -7942.1388      0.61640401     220.45102      295.94575      301.49148      302.18721      280.27593      40420.654      25181.453      65           
   1889000  -7834.2981      109.06826     -7943.3663      0.61640401     216.4116       297.80697      294.00178      297.69686      281.2076       40597.678      25291.737      66           
   1890000  -7832.7776      111.77078     -7944.5484      0.61640401     221.77388      305.00809      308.36481      295.82649      282.85822      40327.561      25123.458      67           
   1891000  -7828.5265      113.59341     -7942.1199      0.61640401     225.39032      307.65858      310.55886      305.45866      285.98341      40499.622      25230.649      66           
   1892000  -7834.474       109.28529     -7943.7593      0.61640401     216.84222      327.09898      299.53794      290.89788      275.92983      40590.836      25287.474      58           
   1893000  -7829.6451      112.04023     -7941.6853      0.61640401     222.30852      320.63106      309.80356      297.72119      271.77041      40548.816      25261.296      58           
   1894000  -7829.2179      111.19056     -7940.4085      0.61640401     220.62262      263.89173      305.93601      300.06983      272.86552      40439.07       25192.926      60           
   1895000  -7828.9991      108.79735     -7937.7964      0.61640401     215.87404      317.00372      298.36604      291.45197      268.2423       40507.156      25235.343      55           
   1896000  -7826.5448      112.44419     -7938.9889      0.61640401     223.11006      338.20788      304.14827      307.44216      275.47255      40863.863      25457.566      55           
   1897000  -7828.3371      111.61361     -7939.9507      0.61640401     221.46203      250.81032      305.51587      301.31182      284.59565      40332.145      25126.313      51           
   1898000  -7831.3721      110.06945     -7941.4416      0.61640401     218.39813      281.58547      301.05722      294.37577      286.81181      40727.627      25372.693      58           
   1899000  -7830.0653      111.81814     -7941.8834      0.61640401     221.86786      334.20396      293.47683      315.94346      286.08218      40353.865      25139.845      60           
   1900000  -7826.0567      111.76534     -7937.8221      0.61640401     221.76309      316.86075      300.57464      305.81341      287.01187      40576.719      25278.679      57           
   1901000  -7830.5073      110.21184     -7940.7191      0.61640401     218.68066      309.09106      299.08634      297.14491      284.72773      40572.001      25275.74       65           
   1902000  -7827.796       111.53893     -7939.335       0.61640401     221.31385      336.96571      306.48311      295.53308      280.81241      40494.502      25227.46       63           
   1903000  -7826.09        112.472       -7938.562       0.61640401     223.16524      353.98668      307.04321      300.95794      279.59577      40651.367      25325.184      62           
   1904000  -7829.7054      109.59113     -7939.2965      0.61640401     217.44907      275.47595      300.9946       290.19658      291.13593      40349.101      25136.877      63           
   1905000  -7829.2487      112.28885     -7941.5376      0.61640401     222.80182      293.63241      304.91821      302.98804      293.53294      40611.206      25300.164      62           
   1906000  -7835.4987      108.06701     -7943.5657      0.61640401     214.42493      296.06589      291.63517      291.84682      289.3282       40448.101      25198.552      63           
   1907000  -7828.9657      111.01793     -7939.9836      0.61640401     220.28009      357.18376      287.40588      315.85147      290.76373      40599.839      25293.083      70           
   1908000  -7830.9902      112.00614     -7942.9963      0.61640401     222.24088      326.76424      304.7582       300.2426       289.17229      40447.212      25197.999      60           
   1909000  -7833.1414      109.55138     -7942.6928      0.61640401     217.37019      284.10416      291.87869      303.89134      287.20158      40666.954      25334.895      62           
   1910000  -7833.4185      107.68025     -7941.0988      0.61640401     213.65752      318.85912      286.31552      297.27358      282.44219      40440.68       25193.929      59           
   1911000  -7829.5944      110.87702     -7940.4714      0.61640401     220.0005       293.68638      304.36153      295.90289      282.46012      40617.931      25304.354      60           
   1912000  -7832.1534      109.59404     -7941.7474      0.61640401     217.45483      306.85351      297.48874      296.34721      278.70924      40486.966      25222.765      71           
   1913000  -7831.475       111.17423     -7942.6492      0.61640401     220.59022      287.67017      296.51412      310.40408      281.33087      40442.275      25194.923      67           
   1914000  -7830.7428      110.31989     -7941.0626      0.61640401     218.89505      317.08087      297.52225      299.745        284.54919      40721.835      25369.085      69           
   1915000  -7830.28        111.89079     -7942.1708      0.61640401     222.012        330.33395      302.29404      304.08407      282.14818      40395.839      25165.994      71           
   1916000  -7832.2464      110.93075     -7943.1771      0.61640401     220.10712      329.9018       303.30821      295.2313       283.36692      40553.672      25264.321      68           
   1917000  -7830.4488      109.6134      -7940.0622      0.61640401     217.49324      316.18038      292.27919      302.98856      281.81822      40459.346      25205.558      66           
   1918000  -7829.866       111.8319      -7941.6979      0.61640401     221.89516      310.33182      304.55986      301.65414      281.80614      40493.349      25226.741      74           
   1919000  -7832.3794      107.47669     -7939.8561      0.61640401     213.25362      308.57963      282.81757      300.80217      283.74343      40401.836      25169.73       76           
   1920000  -7830.8086      108.3838      -7939.1924      0.61640401     215.05349      297.58602      291.83438      296.74624      276.26358      40488.743      25223.872      73           
   1921000  -7830.6858      110.75965     -7941.4455      0.61640401     219.76763      308.57147      304.6337       295.95151      271.53055      40588.222      25285.846      67           
   1922000  -7829.6394      112.01913     -7941.6585      0.61640401     222.26666      312.42236      304.80514      301.03525      288.24818      40482.667      25220.087      72           
   1923000  -7829.3582      111.62871     -7940.9869      0.61640401     221.49199      336.89184      298.1464       308.21389      280.94032      40756.395      25390.615      67           
   1924000  -7831.4861      111.15113     -7942.6372      0.61640401     220.5444       324.59166      307.1149       290.80645      286.97434      40784.446      25408.09       63           
   1925000  -7834.169       107.92314     -7942.0921      0.61640401     214.13946      271.16248      299.33311      283.23385      279.7016       40408.873      25174.114      67           
   1926000  -7829.3149      111.18096     -7940.4958      0.61640401     220.60357      293.40023      302.70317      301.51902      278.85929      40315.903      25116.195      64           
   1927000  -7831.1724      109.15843     -7940.3308      0.61640401     216.59051      282.6774       296.24483      298.30111      271.89338      40543.969      25258.276      60           
   1928000  -7829.8597      109.92659     -7939.7862      0.61640401     218.11467      314.82792      299.06487      298.09452      271.39072      40559.611      25268.021      58           
   1929000  -7834.0676      107.04201     -7941.1096      0.61640401     212.39113      305.13695      295.90385      280.46355      276.34849      40547.987      25260.78       55           
   1930000  -7831.8537      108.00989     -7939.8636      0.61640401     214.31158      274.83606      288.06565      300.31739      279.70321      40724.791      25370.926      58           
   1931000  -7837.383       107.3204      -7944.7034      0.61640401     212.94351      239.92206      292.16661      289.13337      285.9468       40383.896      25158.553      52           
   1932000  -7830.0864      112.87079     -7942.9572      0.61640401     223.95651      369.26919      306.64868      304.43268      279.87816      40503.576      25233.112      53           
   1933000  -7831.6932      109.16954     -7940.8627      0.61640401     216.61254      366.43067      293.80183      294.11674      286.5723       40519.131      25242.803      53           
   1934000  -7829.4876      110.25496     -7939.7425      0.61640401     218.76623      372.05762      295.11543      301.6368       280.50667      40307.534      25110.981      52           
   1935000  -7830.4847      109.56034     -7940.045       0.61640401     217.38796      297.03827      296.05697      297.61573      284.86443      40660.119      25330.636      54           
   1936000  -7831.7053      110.13942     -7941.8447      0.61640401     218.53697      284.30112      300.66202      297.04309      279.75108      40547.91       25260.732      58           
   1937000  -7832.489       109.70929     -7942.1983      0.61640401     217.68352      297.25723      297.95558      298.24754      274.76911      40561.075      25268.934      59           
   1938000  -7833.6857      106.55539     -7940.2411      0.61640401     211.4256       295.59912      290.41387      287.43499      267.88167      40413.725      25177.137      66           
   1939000  -7830.187       110.38376     -7940.5708      0.61640401     219.02179      271.53089      304.12685      297.49924      266.81972      40619.619      25305.406      49           
   1940000  -7833.3987      109.76361     -7943.1623      0.61640401     217.79128      331.54129      296.93382      297.93239      274.07174      40389.858      25162.268      70           
   1941000  -7829.8289      111.55762     -7941.3865      0.61640401     221.35095      243.32775      303.09533      306.92714      277.0809       40535.538      25253.025      59           
   1942000  -7829.6137      109.74023     -7939.354       0.61640401     217.74491      277.0654       288.43103      311.70887      283.61185      40691.416      25350.134      62           
   1943000  -7828.72        110.52832     -7939.2483      0.61640401     219.30861      305.55729      297.92931      304.91384      270.22526      40370.516      25150.218      63           
   1944000  -7828.3291      113.66197     -7941.9911      0.61640401     225.52636      335.90631      311.39968      305.02485      276.54081      40730.524      25374.498      65           
   1945000  -7828.3076      112.46413     -7940.7718      0.61640401     223.14963      327.4577       305.67464      305.6465       274.7079       40390.98       25162.967      61           
   1946000  -7831.7895      110.67189     -7942.4614      0.61640401     219.59348      377.90729      297.43005      301.19886      274.63551      40510.85       25237.644      65           
   1947000  -7833.6917      109.87665     -7943.5683      0.61640401     218.01557      387.5377       295.00558      299.44076      270.47455      40525.14       25246.547      63           
   1948000  -7830.2743      108.18465     -7938.459       0.61640401     214.65834      331.60464      291.03901      294.14399      278.40858      40564.323      25270.957      61           
   1949000  -7833.3029      110.21972     -7943.5226      0.61640401     218.69629      276.49441      297.61024      302.44032      279.94798      40658.681      25329.74       54           
   1950000  -7834.0006      110.72634     -7944.727       0.61640401     219.70153      295.43403      302.90302      295.71325      286.42766      40601.682      25294.231      65           
   1951000  -7828.7648      111.34006     -7940.1049      0.61640401     220.91925      304.87855      297.88641      305.32781      294.61912      40518.23       25242.242      67           
   1952000  -7829.3435      111.87967     -7941.2232      0.61640401     221.98995      314.19083      306.58063      295.94673      294.42295      40706.009      25359.225      58           
   1953000  -7830.9754      111.17034     -7942.1457      0.61640401     220.5825       322.17326      305.86413      292.12289      290.24814      40556.547      25266.113      65           
   1954000  -7834.5389      108.81437     -7943.3532      0.61640401     215.90783      322.06583      290.10184      298.32242      289.80043      40530.933      25250.156      55           
   1955000  -7828.3926      111.88364     -7940.2762      0.61640401     221.99782      304.46065      301.46641      305.83944      287.67834      40592.123      25288.276      55           
   1956000  -7831.4488      110.88683     -7942.3356      0.61640401     220.01996      295.94028      306.5754       291.17964      287.64811      40584.245      25283.368      62           
   1957000  -7826.9629      111.41023     -7938.3731      0.61640401     221.05848      278.04759      291.37569      318.14313      290.24714      40606.9        25297.482      54           
   1958000  -7832.081       111.99813     -7944.0791      0.61640401     222.22498      351.41412      298.04874      308.5677       289.96613      40456.993      25204.092      60           
   1959000  -7830.449       112.62246     -7943.0714      0.61640401     223.46378      323.28371      314.95339      288.29919      295.46664      40752.311      25388.071      62           
   1960000  -7831.8887      110.86429     -7942.753       0.61640401     219.97525      327.384        297.33997      301.26699      293.97858      40451.518      25200.681      67           
   1961000  -7827.132       114.22937     -7941.3614      0.61640401     226.65218      353.98348      313.70621      300.95696      293.18376      40393.731      25164.68       64           
   1962000  -7827.9582      112.65378     -7940.612       0.61640401     223.52592      247.90528      304.85978      307.13881      297.6278       40522.888      25245.143      54           
   1963000  -7829.0031      110.74465     -7939.7478      0.61640401     219.73786      312.78842      301.97715      295.42163      290.11074      40568.338      25273.458      62           
   1964000  -7829.5231      111.58233     -7941.1054      0.61640401     221.39996      303.24393      305.16466      296.19166      295.72711      40727.146      25372.393      60           
   1965000  -7825.2963      111.55148     -7936.8478      0.61640401     221.33875      348.59249      291.60891      312.54914      298.53657      40394.704      25165.287      67           
   1966000  -7825.949       112.63684     -7938.5858      0.61640401     223.4923       366.55213      306.47422      298.10652      296.84547      40605.932      25296.879      63           
   1967000  -7829.0431      114.56962     -7943.6127      0.61640401     227.32731      364.84917      304.29035      316.63337      298.4452       40434.881      25190.316      47           
   1968000  -7831.2628      110.76439     -7942.0272      0.61640401     219.77702      313.46926      298.63607      299.28217      295.6013       40514.486      25239.909      57           
   1969000  -7831.3823      110.05066     -7941.433       0.61640401     218.36086      331.13453      294.87949      300.03747      289.818        40416.329      25178.759      55           
   1970000  -7829.6931      109.88548     -7939.5786      0.61640401     218.03311      346.52714      298.03226      293.31538      288.78761      40757.406      25391.245      59           
   1971000  -7835.3424      107.21066     -7942.553       0.61640401     212.72577      275.73179      291.96775      287.0317       285.62553      40681.964      25344.245      63           
   1972000  -7830.4881      109.96048     -7940.4486      0.61640401     218.18192      306.59368      299.98977      291.88862      294.19938      40398.255      25167.499      61           
   1973000  -7828.7672      110.48757     -7939.2548      0.61640401     219.22776      299.20781      293.45745      303.4228       305.11044      40681.573      25344.002      66           
   1974000  -7827.0785      114.66066     -7941.7391      0.61640401     227.50793      288.55996      309.25648      310.3763       311.32912      40462.845      25207.738      61           
   1975000  -7830.3383      111.15741     -7941.4957      0.61640401     220.55684      269.61951      304.48005      292.79495      309.70385      40559.063      25267.68       66           
   1976000  -7830.2364      110.68124     -7940.9176      0.61640401     219.61205      302.84366      301.65996      293.57743      300.24241      40451.36       25200.582      59           
   1977000  -7831.1861      110.30069     -7941.4868      0.61640401     218.85696      263.345        304.39779      290.37798      293.53811      40714.956      25364.799      56           
   1978000  -7830.0533      110.44876     -7940.5021      0.61640401     219.15075      275.94399      303.87234      293.94202      284.3767       40421.139      25181.755      65           
   1979000  -7827.1682      111.8624      -7939.0306      0.61640401     221.95567      326.36739      307.5694       297.22531      279.78533      40424.764      25184.014      61           
   1980000  -7827.2342      113.7162      -7940.9504      0.61640401     225.63396      351.09707      303.19042      316.23876      280.43037      40597.558      25291.662      58           
   1981000  -7831.9494      108.28674     -7940.2362      0.61640401     214.86091      333.37374      286.56776      299.34158      289.25999      40579.888      25280.654      51           
   1982000  -7830.7656      109.82061     -7940.5862      0.61640401     217.9044       333.41687      292.29218      300.82683      294.85822      40630.785      25312.362      54           
   1983000  -7831.6039      112.34472     -7943.9486      0.61640401     222.91269      309.37132      303.35231      303.39248      299.94515      40458.597      25205.091      47           
   1984000  -7830.7488      110.96629     -7941.715       0.61640401     220.17763      375.37826      297.60016      298.05863      301.93103      40845.363      25446.04       48           
   1985000  -7829.631       111.0836      -7940.7146      0.61640401     220.4104       320.13504      307.61136      287.55662      297.8891       40361.481      25144.59       46           
   1986000  -7833.4247      108.67335     -7942.098       0.61640401     215.62801      313.64654      293.20843      292.97929      290.48855      40595.396      25290.315      52           
   1987000  -7830.3478      110.79376     -7941.1416      0.61640401     219.8353       300.64602      293.30651      309.25244      291.5306       40359.745      25143.508      42           
   1988000  -7832.233       108.55219     -7940.7851      0.61640401     215.38761      236.98527      297.05454      289.79989      290.86607      40658.572      25329.673      48           
   1989000  -7829.6548      112.10484     -7941.7597      0.61640401     222.43672      337.72196      305.08695      299.98182      290.57638      40477.303      25216.745      47           
   1990000  -7826.8007      112.93458     -7939.7352      0.61640401     224.08309      349.77071      305.49003      303.50644      296.37639      40673.295      25338.845      51           
   1991000  -7827.5408      113.42843     -7940.9693      0.61640401     225.06297      318.13856      310.2501       298.90208      307.50369      40408.592      25173.939      52           
   1992000  -7830.6652      109.87509     -7940.5403      0.61640401     218.01249      342.47833      293.14331      295.36188      312.90296      40546.569      25259.896      47           
   1993000  -7829.8562      112.2746      -7942.1308      0.61640401     222.77356      323.80949      298.34284      306.59827      311.77458      40751.853      25387.785      56           
   1994000  -7831.0582      111.10137     -7942.1596      0.61640401     220.44566      364.19026      295.72918      301.91257      303.5329       40403.696      25170.889      50           
   1995000  -7832.535       109.10088     -7941.6359      0.61640401     216.47632      328.97346      293.50384      293.04732      298.16142      40869.259      25460.927      54           
   1996000  -7830.7111      110.53809     -7941.2492      0.61640401     219.328        308.03187      293.18243      305.75186      296.64957      40305.729      25109.857      57           
   1997000  -7832.9581      108.11039     -7941.0685      0.61640401     214.51099      320.45214      292.9721       288.75586      290.42296      40626.131      25309.462      52           
   1998000  -7831.0263      111.53022     -7942.5565      0.61640401     221.29658      282.3768       300.87566      304.11359      293.09122      40545.84       25259.442      64           
   1999000  -7829.019       112.45929     -7941.4783      0.61640401     223.14001      353.60095      304.14239      299.21111      305.51673      40737.42       25378.794      57           
   2000000  -7829.0149      110.66832     -7939.6832      0.61640401     219.58641      349.74323      296.84395      296.34951      307.99187      40445.503      25196.934      54           
   2001000  -7830.7764      112.38729     -7943.1637      0.61640401     222.99716      346.15662      300.72433      302.54428      312.85094      40559.813      25268.147      53           
   2002000  -7831.6743      111.95246     -7943.6267      0.61640401     222.13438      293.76336      298.90906      304.87872      312.0743       40852.796      25450.671      59           
   2003000  -7831.9777      109.57973     -7941.5575      0.61640401     217.42644      247.69064      293.58816      299.82922      302.39754      40283.537      25096.032      58           
   2004000  -7828.6269      110.57417     -7939.201       0.61640401     219.39958      318.70774      297.94164      297.61223      299.02003      40695.473      25352.662      64           
   2005000  -7830.6521      109.23699     -7939.8891      0.61640401     216.74637      258.70474      304.06427      281.35498      300.4284       40169.291      25024.858      54           
   2006000  -7828.9091      112.617       -7941.5261      0.61640401     223.45294      259.34264      309.83062      298.85216      298.05712      40788.18       25410.417      56           
   2007000  -7825.0693      112.70134     -7937.7706      0.61640401     223.62028      302.38989      300.35389      310.45598      301.49936      40432.476      25188.818      52           
   2008000  -7827.604       113.4863      -7941.0903      0.61640401     225.17779      320.73924      300.15773      315.12346      304.18597      40617.973      25304.38       49           
   2009000  -7830.9787      111.51122     -7942.4899      0.61640401     221.25888      325.20485      295.32337      305.10568      313.36657      40482.094      25219.729      44           
   2010000  -7828.6979      111.34585     -7940.0438      0.61640401     220.93075      307.73635      296.48483      302.90403      313.09946      40573.81       25276.867      50           
   2011000  -7828.5928      113.061       -7941.6538      0.61640401     224.33392      387.00759      309.17234      294.25154      308.4097       40707.087      25359.897      50           
   2012000  -7829.6106      111.23014     -7940.8407      0.61640401     220.70116      376.05194      299.19742      296.88047      303.79537      40329.346      25124.57       52           
   2013000  -7832.6628      108.73772     -7941.4005      0.61640401     215.75574      337.39571      293.72406      288.82         302.6975       40985.448      25533.312      44           
   2014000  -7828.6479      112.10094     -7940.7489      0.61640401     222.42899      248.98128      308.60943      295.34221      304.32956      40140.749      25007.077      48           
   2015000  -7826.5903      113.38641     -7939.9767      0.61640401     224.9796       265.93846      302.71319      311.3154       311.15023      40706.291      25359.401      48           
   2016000  -7827.3103      113.16083     -7940.4711      0.61640401     224.532        266.11513      308.79288      296.98658      327.07448      40448.395      25198.735      56           
   2017000  -7833.5328      110.72308     -7944.2559      0.61640401     219.69505      282.31597      304.08065      283.2042       334.59443      40596.162      25290.792      60           
   2018000  -7830.2925      113.04425     -7943.3368      0.61640401     224.30068      250.28655      300.34345      307.03785      340.20094      40461.999      25207.21       63           
   2019000  -7828.3779      112.17213     -7940.55        0.61640401     222.57024      238.44018      302.13341      299.38667      333.52532      40411.607      25175.817      55           
   2020000  -7830.2078      111.59709     -7941.8049      0.61640401     221.42925      290.57255      300.81174      295.82815      327.55435      40687.463      25347.671      58           
   2021000  -7826.9455      111.59579     -7938.5413      0.61640401     221.42667      320.57629      304.32597      291.91671      315.09404      40491.571      25225.634      58           
   2022000  -7830.2338      109.95469     -7940.1885      0.61640401     218.17042      308.69827      298.77835      290.37455      307.28588      40778.772      25404.556      61           
   2023000  -7829.85        111.62027     -7941.4703      0.61640401     221.47524      269.33599      301.75567      300.48819      308.13378      40156.448      25016.857      59           
   2024000  -7829.217       111.74307     -7940.9601      0.61640401     221.71891      243.72087      293.33705      313.77489      313.4694       40757.206      25391.12       55           
   2025000  -7830.3045      110.32587     -7940.6304      0.61640401     218.90693      282.68262      292.48751      301.06993      318.33784      40257.709      25079.941      53           
   2026000  -7829.8096      108.63814     -7938.4477      0.61640401     215.55814      289.49554      289.62294      288.71917      333.1167       40789.568      25411.281      49           
   2027000  -7827.4782      113.17332     -7940.6515      0.61640401     224.55678      302.47743      298.47327      307.82089      337.09279      40572.378      25275.975      54           
   2028000  -7830.8684      110.48685     -7941.3552      0.61640401     219.22633      228.63696      294.86117      296.01647      338.82877      40485.922      25222.114      49           
   2029000  -7829.6033      112.05441     -7941.6577      0.61640401     222.33666      218.16092      301.21657      301.62898      327.73765      40489.386      25224.272      50           
   2030000  -7827.5023      112.95529     -7940.4576      0.61640401     224.12418      329.68904      302.83         302.23336      321.91813      40497.871      25229.559      50           
   2031000  -7830.6719      111.08289     -7941.7548      0.61640401     220.40899      250.46557      298.07648      300.86979      314.8671       40924.702      25495.468      51           
   2032000  -7826.8119      112.04732     -7938.8592      0.61640401     222.3226       351.36544      294.94877      308.32999      312.77605      40143.647      25008.883      53           
   2033000  -7827.861       111.24053     -7939.1016      0.61640401     220.72178      352.79445      298.82845      296.72371      311.51814      40949.42       25510.866      53           
   2034000  -7827.3842      112.12168     -7939.5059      0.61640401     222.47013      259.80511      306.27088      296.44083      313.48462      40379.467      25155.794      53           
   2035000  -7827.6105      111.32239     -7938.9329      0.61640401     220.88419      306.72583      292.82607      306.82855      318.59749      40456.594      25203.844      59           
   2036000  -7829.199       111.14638     -7940.3453      0.61640401     220.53496      273.38335      293.39386      304.87842      324.33866      40268.584      25086.716      49           
   2037000  -7825.9417      113.9112      -7939.8529      0.61640401     226.02087      286.43044      306.9459       305.65795      321.27063      40729.56       25373.897      54           
   2038000  -7826.0857      115.29848     -7941.3842      0.61640401     228.7735       253.41133      314.49642      305.9235       321.67684      40526.77       25247.562      46           
   2039000  -7833.051       108.30312     -7941.3541      0.61640401     214.89341      303.77225      294.60362      280.15877      324.2193       40438.494      25192.567      50           
   2040000  -7829.3383      111.98012     -7941.3185      0.61640401     222.18926      358.88846      301.53449      298.00558      310.77521      40810.397      25424.257      55           
   2041000  -7828.2519      109.46088     -7937.7128      0.61640401     217.19062      336.27922      299.05545      285.34207      305.16826      40447.239      25198.015      54           
   2042000  -7829.6027      110.22051     -7939.8232      0.61640401     218.69787      310.3457       290.89124      305.11489      303.11058      40824.126      25432.81       52           
   2043000  -7829.8662      109.20065     -7939.0669      0.61640401     216.67428      356.17986      293.612        291.48553      300.45049      40405.773      25172.183      57           
   2044000  -7830.2068      110.65422     -7940.861       0.61640401     219.55843      279.62899      294.74723      302.63014      309.14332      40534.086      25252.12       52           
   2045000  -7831.9451      112.23339     -7944.1785      0.61640401     222.6918       289.16732      301.01333      304.18279      311.76616      40547.77       25260.645      59           
   2046000  -7833.2191      111.28135     -7944.5005      0.61640401     220.80277      291.14674      295.92395      301.76548      323.12394      40560.096      25268.324      60           
   2047000  -7831.5566      111.71417     -7943.2708      0.61640401     221.66156      314.9883       301.40954      296.21424      320.54074      40838.602      25441.829      62           
   2048000  -7829.7782      112.17502     -7941.9532      0.61640401     222.57597      275.8426       294.74836      311.78312      320.88206      40254.953      25078.224      61           
   2049000  -7831.2017      109.98478     -7941.1865      0.61640401     218.23014      261.32048      299.02576      290.94496      314.68816      40588.406      25285.96       55           
   2050000  -7825.5361      111.96673     -7937.5028      0.61640401     222.16268      232.02991      302.8445       301.43421      313.84836      40331.735      25126.058      49           
   2051000  -7828.554       112.77623     -7941.3302      0.61640401     223.76889      306.177        306.28457      295.77957      327.35602      40764.429      25395.62       60           
   2052000  -7826.5154      114.95231     -7941.4677      0.61640401     228.08663      310.99714      308.23452      308.31716      330.00652      40283.436      25095.969      67           
   2053000  -7832.2841      108.72022     -7941.0044      0.61640401     215.72101      292.73247      288.96841      292.16249      326.12401      40672.457      25338.323      64           
   2054000  -7830.4981      111.70089     -7942.1989      0.61640401     221.63521      255.23151      300.70531      298.11005      332.01737      40421.002      25181.67       67           
   2055000  -7827.4276      112.34137     -7939.7689      0.61640401     222.90604      300.98695      298.04398      303.7364       333.04579      40500.26       25231.047      66           
   2056000  -7829.831       111.59863     -7941.4296      0.61640401     221.43231      261.24092      302.0924       296.18994      326.9055       40588.988      25286.323      67           
   2057000  -7827.9566      112.20627     -7940.1629      0.61640401     222.63798      299.5814       301.41345      299.0069       327.96166      40336.177      25128.826      65           
   2058000  -7832.3144      112.69043     -7945.0048      0.61640401     223.59864      289.42001      299.16131      306.65004      327.00659      40778.362      25404.3        54           
   2059000  -7831.0483      112.87518     -7943.9235      0.61640401     223.96522      332.79089      299.57912      304.33931      329.27562      40353.039      25139.33       63           
   2060000  -7827.9472      111.47901     -7939.4262      0.61640401     221.19497      305.1622       297.405        297.02296      335.89269      40540.273      25255.974      57           
   2061000  -7831.2682      110.91208     -7942.1803      0.61640401     220.07007      309.99158      296.84489      293.02964      336.52739      40394.112      25164.918      62           
   2062000  -7829.712       113.96352     -7943.6755      0.61640401     226.12469      335.9596       302.58876      305.23019      340.5379       40375.185      25153.127      59           
   2063000  -7830.8604      112.38926     -7943.2496      0.61640401     223.00107      308.69907      300.85865      297.37874      340.77018      40631.727      25312.948      57           
   2064000  -7827.9643      112.88689     -7940.8512      0.61640401     223.98845      345.11045      301.00226      304.03435      319.02549      40394.825      25165.362      63           
   2065000  -7828.6701      113.08213     -7941.7522      0.61640401     224.37585      252.11343      301.42816      308.42586      327.98724      40590.31       25287.146      64           
   2066000  -7825.5817      112.72138     -7938.3031      0.61640401     223.66005      248.50649      295.8551       316.32376      320.30632      40424.51       25183.855      67           
   2067000  -7829.6143      111.78873     -7941.4031      0.61640401     221.80951      286.67245      289.71513      315.78801      320.62848      40749.445      25386.285      62           
   2068000  -7830.2799      111.99807     -7942.2779      0.61640401     222.22488      314.86959      299.46326      301.76603      317.97005      40408.81       25174.075      63           
   2069000  -7828.6339      112.68949     -7941.3234      0.61640401     223.59677      310.76006      297.637        307.17336      329.24056      40479.415      25218.061      60           
   2070000  -7829.5689      111.77216     -7941.341       0.61640401     221.77663      254.762        301.48911      296.42307      332.64342      40551.302      25262.845      51           
   2071000  -7825.3875      114.42617     -7939.8136      0.61640401     227.04267      244.58017      305.07121      310.43646      337.34682      40523.718      25245.661      53           
   2072000  -7824.3683      112.67886     -7937.0471      0.61640401     223.57568      271.54808      302.81574      299.06076      337.48435      40601.117      25293.879      49           
   2073000  -7828.7125      111.99        -7940.7025      0.61640401     222.20885      305.39399      298.84449      299.77053      331.44357      40413.416      25176.944      48           
   2074000  -7828.298       111.32453     -7939.6225      0.61640401     220.88845      305.62765      298.22646      296.5083       327.98224      40798.916      25417.105      48           
   2075000  -7825.9838      115.03285     -7941.0166      0.61640401     228.24644      369.90343      302.42813      312.34994      338.89094      40354.322      25140.13       51           
   2076000  -7827.1086      112.73545     -7939.844       0.61640401     223.68797      298.63983      298.94677      302.7449       342.83099      40656.137      25328.156      53           
   2077000  -7827.9068      114.44051     -7942.3473      0.61640401     227.07112      348.63317      305.44715      303.2156       342.96462      40513.219      25239.12       60           
   2078000  -7824.4335      114.47981     -7938.9133      0.61640401     227.14911      310.98739      310.08199      299.27836      341.26061      40733.386      25376.281      61           
   2079000  -7828.3413      115.52724     -7943.8685      0.61640401     229.22741      317.04601      310.08243      306.46629      342.47132      40618.732      25304.853      59           
   2080000  -7826.235       115.00762     -7941.2426      0.61640401     228.19638      318.59629      311.20301      302.81478      333.8696       40395.85       25166.001      53           
   2081000  -7830.8352      111.73228     -7942.5675      0.61640401     221.69749      269.02406      295.22271      304.34995      332.63632      40725.155      25371.153      45           
   2082000  -7829.4915      109.46743     -7938.9589      0.61640401     217.20361      284.741        289.0685       295.9709       331.97743      40424.481      25183.837      42           
   2083000  -7832.4625      108.3833      -7940.8458      0.61640401     215.0525       280.3935       284.76238      294.5981       332.31916      40566.868      25272.543      49           
   2084000  -7828.1172      110.4149      -7938.5321      0.61640401     219.08358      268.53509      293.03347      298.45376      332.6505       40374.058      25152.425      58           
   2085000  -7829.0194      113.96597     -7942.9854      0.61640401     226.12954      299.05222      306.6283       303.87795      329.66143      40850.406      25449.182      57           
   2086000  -7826.5115      112.63809     -7939.1496      0.61640401     223.4948       306.18614      305.24364      296.58625      325.18306      40285.822      25097.455      52           
   2087000  -7830.4022      111.48774     -7941.8899      0.61640401     221.21228      318.54525      289.70173      309.42449      329.00848      40587.178      25285.196      59           
   2088000  -7830.847       111.02605     -7941.873       0.61640401     220.2962       355.47684      289.65475      304.54304      327.58846      40581.001      25281.347      55           
   2089000  -7827.9253      110.48856     -7938.4139      0.61640401     219.22973      295.5795       297.65878      291.14224      330.08735      40520.481      25243.644      57           
   2090000  -7827.1616      112.61777     -7939.7793      0.61640401     223.45448      331.66651      300.00252      299.94866      337.186        40271.171      25088.328      54           
   2091000  -7825.2456      113.86009     -7939.1057      0.61640401     225.91947      279.33672      302.30005      308.25804      339.25597      40620.539      25305.979      58           
   2092000  -7831.9968      109.6249      -7941.6217      0.61640401     217.51607      305.62971      293.20339      290.43431      331.47008      40704.765      25358.45       53           
   2093000  -7825.9881      113.98635     -7939.9745      0.61640401     226.17         387.09908      299.40677      309.16867      334.63536      40436.49       25191.319      53           
   2094000  -7825.7163      115.27006     -7940.9864      0.61640401     228.71711      340.14442      310.46986      305.32827      330.788        40580.901      25281.285      67           
   2095000  -7830.9341      110.18247     -7941.1166      0.61640401     218.62238      325.4906       293.8614       291.18642      337.48668      40461.13       25206.669      55           
   2096000  -7827.7897      112.55518     -7940.3449      0.61640401     223.33028      308.28436      296.40412      306.69503      335.33645      40579.75       25280.568      60           
   2097000  -7829.9636      113.34307     -7943.3067      0.61640401     224.89361      289.77771      305.20373      302.52078      328.54307      40538.713      25255.002      69           
   2098000  -7831.8798      110.72877     -7942.6086      0.61640401     219.70635      329.40514      298.26447      291.06262      326.42968      40416.272      25178.724      72           
   2099000  -7829.8865      111.03117     -7940.9177      0.61640401     220.30636      264.11739      299.4593       295.57511      325.89342      40457.051      25204.128      60           
   2100000  -7828.6109      114.26803     -7942.8789      0.61640401     226.72889      341.74472      303.28195      310.85443      321.30946      40711.913      25362.904      60           
   2101000  -7827.1802      113.40374     -7940.5839      0.61640401     225.01398      394.53889      297.27989      309.3045       327.3836       40427.729      25185.861      52           
   2102000  -7827.9502      111.16944     -7939.1196      0.61640401     220.58072      286.21039      298.96087      296.07446      324.96151      40472.014      25213.45       59           
   2103000  -7829.8899      113.34442     -7943.2343      0.61640401     224.89628      318.76508      297.90019      312.69367      323.34488      40562.732      25269.966      62           
   2104000  -7828.8178      113.84806     -7942.6659      0.61640401     225.89559      306.58011      307.10406      304.76391      317.91062      40326.822      25122.998      56           
   2105000  -7832.4247      110.2576      -7942.6823      0.61640401     218.77145      334.63121      297.2864       290.96793      317.53152      40504.793      25233.871      53           
   2106000  -7832.3388      108.73972     -7941.0785      0.61640401     215.7597       279.87819      280.05955      308.89836      313.83105      40580.111      25280.793      52           
   2107000  -7829.1425      111.38673     -7940.5292      0.61640401     221.01187      294.39083      306.44124      289.96527      309.88763      40502.514      25232.451      64           
   2108000  -7829.9771      112.19538     -7942.1725      0.61640401     222.61638      293.55375      297.36303      310.02729      307.7515       40447.176      25197.976      55           
   2109000  -7828.1712      111.48558     -7939.6568      0.61640401     221.208        243.47876      293.14595      313.66397      306.8841       40514.103      25239.67       53           
   2110000  -7825.3318      112.928       -7938.2598      0.61640401     224.07003      312.83598      300.51081      311.27853      301.66814      40626.588      25309.747      60           
   2111000  -7832.1791      110.14749     -7942.3266      0.61640401     218.55298      276.82296      288.43717      309.77975      304.50435      40434.381      25190.005      63           
   2112000  -7829.7367      112.31213     -7942.0488      0.61640401     222.84802      292.43606      299.5553       307.66666      308.71724      40642.128      25319.428      72           
   2113000  -7827.5481      111.64335     -7939.1914      0.61640401     221.52105      319.23258      302.41804      297.72017      304.12382      40490.736      25225.114      66           
   2114000  -7831.3555      110.51123     -7941.8668      0.61640401     219.2747       304.05904      296.31889      299.31831      303.71714      40576.309      25278.424      64           
   2115000  -7827.4511      112.39788     -7939.849       0.61640401     223.01817      301.68079      305.73643      300.96014      298.36909      40365.361      25147.007      60           
   2116000  -7830.3601      111.16023     -7941.5204      0.61640401     220.56245      286.00003      302.60181      296.68463      301.07276      40594.938      25290.03       69           
   2117000  -7831.8364      109.99797     -7941.8344      0.61640401     218.25631      285.53613      297.56438      294.85045      303.01073      40419.424      25180.687      58           
   2118000  -7829.222       111.01768     -7940.2397      0.61640401     220.2796       297.24264      297.83727      300.00197      309.33916      40441.759      25194.602      65           
   2119000  -7829.8626      111.48795     -7941.3505      0.61640401     221.2127       264.96898      304.00734      295.99906      311.60177      40521.092      25244.025      70           
   2120000  -7830.6754      111.96467     -7942.64        0.61640401     222.1586       286.1091       306.50805      292.98069      317.44409      40606.641      25297.321      67           
   2121000  -7822.6531      114.91962     -7937.5727      0.61640401     228.02176      265.63703      306.60633      317.49533      311.83395      40591.752      25288.045      61           
   2122000  -7827.3159      114.64297     -7941.9588      0.61640401     227.47284      299.78788      310.06918      308.76889      309.83152      40491.076      25225.325      65           
   2123000  -7831.9725      111.92736     -7943.8999      0.61640401     222.08458      248.40982      305.54626      299.40322      304.57967      40564.738      25271.216      63           
   2124000  -7831.0863      109.81876     -7940.9051      0.61640401     217.90071      204.42554      295.57048      300.16011      304.32824      40392.677      25164.024      53           
   2125000  -7830.0212      110.97416     -7940.9954      0.61640401     220.19325      247.26808      301.44945      299.66553      298.01948      40738.904      25379.718      57           
   2126000  -7831.1827      108.80264     -7939.9853      0.61640401     215.88454      242.08134      289.21606      302.99712      293.27952      40421.091      25181.726      57           
   2127000  -7829.5526      109.99147     -7939.544       0.61640401     218.2434       312.8155       300.93653      291.41077      290.16766      40691.68       25350.298      55           
   2128000  -7826.1835      112.8941      -7939.0776      0.61640401     224.00277      326.94303      302.69618      309.22056      293.77662      40618.12       25304.472      47           
   2129000  -7832.82        107.30972     -7940.1297      0.61640401     212.92233      269.47955      293.80087      282.31129      297.71199      40558.562      25267.368      55           
   2130000  -7830.4045      111.57773     -7941.9822      0.61640401     221.39084      304.32226      305.61881      295.31934      296.31716      40533.936      25252.026      44           
   2131000  -7830.7518      110.68943     -7941.4413      0.61640401     219.62829      318.86938      297.70777      300.13355      294.24589      40802.092      25419.083      56           
   2132000  -7833.9233      108.42896     -7942.3523      0.61640401     215.1431       289.28814      292.53712      292.28432      294.80335      40378.017      25154.891      54           
   2133000  -7828.3703      114.51822     -7942.8885      0.61640401     227.22531      309.19053      315.41455      302.86598      294.94791      40625.474      25309.053      50           
   2134000  -7830.8357      111.03168     -7941.8674      0.61640401     220.30737      265.47218      301.82909      299.73872      292.20393      40553.704      25264.341      50           
   2135000  -7829.0608      111.25938     -7940.3202      0.61640401     220.75917      308.59765      300.84382      300.75158      291.99754      40428.292      25186.212      61           
   2136000  -7829.5259      109.04397     -7938.5698      0.61640401     216.36339      268.68717      293.026        297.69011      293.08684      40629.176      25311.36       55           
   2137000  -7831.1007      110.29639     -7941.3971      0.61640401     218.84843      260.00284      299.09019      297.31755      298.32869      40639.657      25317.889      57           
   2138000  -7831.3246      110.24278     -7941.5674      0.61640401     218.74206      277.87213      293.75569      303.77984      299.10212      40404.551      25171.421      61           
   2139000  -7831.9631      108.69562     -7940.6588      0.61640401     215.67221      263.68649      294.05672      291.78446      301.98606      40500.383      25231.123      59           
   2140000  -7833.3198      109.943       -7943.2628      0.61640401     218.14723      271.99771      298.09949      296.00199      296.90219      40561.702      25269.324      64           
   2141000  -7831.8473      112.44679     -7944.2941      0.61640401     223.11521      306.54826      301.93785      305.30068      304.05661      40615.112      25302.598      63           
   2142000  -7828.9838      112.31588     -7941.2997      0.61640401     222.85547      289.71363      300.25765      307.0793       306.7225       40542.299      25257.236      56           
   2143000  -7827.9344      111.73861     -7939.673       0.61640401     221.71006      338.89622      300.56319      299.99272      306.31932      40598.336      25292.146      49           
   2144000  -7830.2817      112.67462     -7942.9563      0.61640401     223.56726      309.29518      302.90543      304.20534      309.13761      40225.736      25060.022      60           
   2145000  -7825.7786      113.1906      -7938.9692      0.61640401     224.59107      364.84733      306.74915      298.16892      311.59688      40644.294      25320.777      67           
   2146000  -7829.8758      112.85975     -7942.7355      0.61640401     223.93461      266.48967      315.73196      284.73457      323.44906      40373.618      25152.15       46           
   2147000  -7829.0923      112.03957     -7941.1319      0.61640401     222.30721      292.34335      293.14229      309.2653       330.98303      40713.765      25364.057      49           
   2148000  -7831.7389      109.36088     -7941.0998      0.61640401     216.99219      305.27166      292.92994      290.23093      325.84081      40360.508      25143.983      50           
   2149000  -7829.0702      115.42896     -7944.4992      0.61640401     229.03239      323.29447      302.0866       321.67711      324.01284      40791.752      25412.642      61           
   2150000  -7828.4263      109.87261     -7938.2989      0.61640401     218.00756      307.93209      295.05754      292.94703      316.54186      40377.244      25154.41       51           
   2151000  -7830.3096      110.36695     -7940.6765      0.61640401     218.98844      331.18024      300.57         286.9863       318.14851      40523.292      25245.395      51           
   2152000  -7831.1013      111.5081      -7942.6094      0.61640401     221.25269      272.87182      301.1526       298.82999      312.51447      40450.298      25199.921      46           
   2153000  -7830.005       112.98419     -7942.9892      0.61640401     224.18151      357.09005      306.49959      298.0902       312.98622      40686.462      25347.048      47           
   2154000  -7831.0373      111.07904     -7942.1163      0.61640401     220.40135      375.19584      297.30294      295.62915      316.20478      40475.782      25215.797      52           
   2155000  -7831.2666      111.45479     -7942.7214      0.61640401     221.1469       319.86902      298.02568      298.08032      323.95994      40380.465      25156.416      64           
   2156000  -7829.9108      110.52369     -7940.4345      0.61640401     219.29943      289.5135       297.89047      292.68632      324.79593      40699.022      25354.873      56           
   2157000  -7829.9322      110.71375     -7940.6459      0.61640401     219.67654      281.67682      293.68927      299.01407      332.38705      40465.378      25209.316      54           
   2158000  -7826.0204      114.97822     -7940.9986      0.61640401     228.13805      332.05529      306.10223      310.20715      330.87644      40771.109      25399.782      56           
   2159000  -7829.6115      109.80277     -7939.4143      0.61640401     217.869        301.63723      296.83284      287.5062       327.12314      40387.918      25161.059      54           
   2160000  -7828.764       112.04648     -7940.8105      0.61640401     222.32092      327.37065      306.00593      292.24574      316.23678      40626.366      25309.609      50           
   2161000  -7830.6908      112.68765     -7943.3784      0.61640401     223.59314      351.03424      303.59101      302.10667      306.81819      40528.12       25248.403      45           
   2162000  -7834.2698      107.83717     -7942.107       0.61640401     213.96888      324.3582       286.1137       292.71773      307.07307      40588.824      25286.221      47           
   2163000  -7830.3446      110.40145     -7940.7461      0.61640401     219.05689      246.62667      302.98929      290.09047      308.58268      40498.31       25229.832      50           
   2164000  -7828.5472      111.69928     -7940.2465      0.61640401     221.63202      299.58896      299.27454      302.87461      308.71198      40650.276      25324.504      51           
   2165000  -7831.1268      112.53619     -7943.6629      0.61640401     223.29261      332.51783      299.89926      306.95514      308.35682      40569.957      25274.467      42           
   2166000  -7832.5468      109.78703     -7942.3338      0.61640401     217.83775      229.56529      296.67931      295.88951      306.24441      40533.532      25251.774      45           
   2167000  -7828.2133      113.35469     -7941.568       0.61640401     224.91666      306.43768      306.35202      305.60354      304.10516      40731.936      25375.377      44           
   2168000  -7831.38        109.47777     -7940.8577      0.61640401     217.22413      341.63233      290.82298      299.81693      298.2516       40455.196      25202.973      39           
   2169000  -7834.6328      108.62472     -7943.2576      0.61640401     215.53153      260.047        294.23289      292.10449      295.51869      40563.786      25270.623      41           
   2170000  -7831.6795      110.08213     -7941.7616      0.61640401     218.42329      388.30439      289.22049      307.02054      290.61982      40566.552      25272.346      39           
   2171000  -7833.0536      109.50373     -7942.5573      0.61640401     217.27564      307.88215      294.10359      298.94645      288.41129      40649.694      25324.142      38           
   2172000  -7832.6665      110.66791     -7943.3344      0.61640401     219.5856       332.75868      291.71793      311.67223      282.64286      40445.121      25196.696      42           
   2173000  -7833.2731      108.44728     -7941.7204      0.61640401     215.17946      284.6425       299.1271       283.45796      292.05584      40614.35       25302.123      47           
   2174000  -7832.559       110.17527     -7942.7343      0.61640401     218.6081       322.72604      292.88033      302.9962       296.97236      40589.617      25286.715      41           
   2175000  -7830.6491      110.7066      -7941.3557      0.61640401     219.66236      303.90809      299.11497      298.5822       295.85572      40537.397      25254.182      58           
   2176000  -7834.6078      107.72264     -7942.3304      0.61640401     213.74163      269.60338      288.4009       294.66718      292.09267      40413.925      25177.261      47           
   2177000  -7830.9951      111.01532     -7942.0104      0.61640401     220.27491      283.97457      302.13807      298.91127      289.75532      40500.338      25231.096      48           
   2178000  -7829.0537      110.8679      -7939.9216      0.61640401     219.9824       310.93044      296.43872      305.40192      288.63008      40600.926      25293.76       45           
   2179000  -7830.3397      112.04453     -7942.3842      0.61640401     222.31705      284.03379      306.73916      300.04358      288.77756      40546.399      25259.79       49           
   2180000  -7829.4615      109.60667     -7939.0681      0.61640401     217.47989      335.96568      292.41157      300.32873      289.8121       40587.765      25285.561      50           
   2181000  -7830.2809      112.02426     -7942.3052      0.61640401     222.27684      349.28671      295.57799      312.16347      292.76357      40479.27       25217.97       55           
   2182000  -7828.0467      113.21124     -7941.258       0.61640401     224.63203      371.21324      306.1536       305.20013      290.66831      40455.653      25203.258      48           
   2183000  -7829.5638      111.18119     -7940.745       0.61640401     220.60403      274.84243      307.12579      291.19033      297.68807      40594.393      25289.69       49           
   2184000  -7827.5958      111.12315     -7938.719       0.61640401     220.48886      360.28963      302.50697      293.41159      298.53443      40564.393      25271          49           
   2185000  -7827.8678      112.85671     -7940.7245      0.61640401     223.92857      278.68969      301.39166      312.3853       296.68784      40583.307      25282.784      49           
   2186000  -7833.0928      108.49858     -7941.5914      0.61640401     215.28123      292.12583      293.87253      289.66572      298.77876      40572.783      25276.227      51           
   2187000  -7829.3654      109.38126     -7938.7467      0.61640401     217.03264      277.54584      289.54457      304.027        296.38739      40628.752      25311.095      50           
   2188000  -7830.9893      110.93157     -7941.9209      0.61640401     220.10873      359.22662      304.55378      291.06119      292.12686      40553.709      25264.345      41           
   2189000  -7827.0027      113.46184     -7940.4646      0.61640401     225.12926      371.23273      310.57889      300.97888      290.39227      40422.729      25182.746      42           
   2190000  -7827.0034      112.33883     -7939.3422      0.61640401     222.90101      278.9639       309.78018      296.9923       292.88477      40543.278      25257.846      50           
   2191000  -7830.0957      110.25016     -7940.3459      0.61640401     218.7567       285.65173      298.45856      297.05225      295.66938      40585.06       25283.876      45           
   2192000  -7828.2233      113.48923     -7941.7126      0.61640401     225.1836       350.07345      300.24448      315.14292      298.04566      40496.978      25229.002      50           
   2193000  -7832.624       108.75177     -7941.3757      0.61640401     215.78361      307.64277      290.35331      296.0691       298.91445      40412.687      25176.49       49           
   2194000  -7831.4151      109.60916     -7941.0242      0.61640401     217.48484      278.29228      288.76895      306.15474      299.00618      40658.43       25329.584      47           
   2195000  -7829.4979      112.18884     -7941.6868      0.61640401     222.6034       293.58646      302.28075      305.03239      298.111        40587.69       25285.514      55           
   2196000  -7832.37        110.32253     -7942.6925      0.61640401     218.90028      365.43044      299.63208      290.99325      300.03846      40532.844      25251.346      50           
   2197000  -7827.7412      113.67415     -7941.4153      0.61640401     225.55052      299.72621      305.53483      308.7114       307.4929       40442.498      25195.062      55           
   2198000  -7827.6508      111.11395     -7938.7647      0.61640401     220.47062      291.16938      305.56704      291.38833      301.09556      40542.562      25257.4        52           
   2199000  -7829.8556      113.71777     -7943.5733      0.61640401     225.63708      261.25933      305.75692      310.16287      308.32958      40618.174      25304.506      47           
   2200000  -7832.7312      111.50751     -7944.2387      0.61640401     221.25151      278.07968      300.1366       301.33237      306.8996       40502.618      25232.516      40           
   2201000  -7830.428       110.89641     -7941.3244      0.61640401     220.03897      223.68106      296.22305      303.69014      310.01376      40735.333      25377.493      38           
   2202000  -7829.7528      111.52315     -7941.2759      0.61640401     221.28254      246.58385      301.1683       299.43494      312.87194      40484.292      25221.099      37           
   2203000  -7829.1171      110.80542     -7939.9225      0.61640401     219.85843      197.615        298.90341      299.21698      313.23757      40604.222      25295.813      39           
   2204000  -7831.0273      110.75632     -7941.7836      0.61640401     219.761        313.0373       299.19962      295.15127      309.16814      40378.53       25155.211      46           
   2205000  -7828.3049      111.74801     -7940.0529      0.61640401     221.72871      328.22453      299.10321      302.74553      306.46665      40500.888      25231.438      46           
   2206000  -7826.4789      113.65782     -7940.1368      0.61640401     225.51812      324.2298       298.77596      317.7502       306.8438       40430.346      25187.491      43           
   2207000  -7829.856       110.74549     -7940.6015      0.61640401     219.73952      314.61687      292.0817       306.1028       307.45369      40630.456      25312.157      40           
   2208000  -7829.1803      109.60959     -7938.7899      0.61640401     217.48569      330.31912      292.56374      296.52378      306.38712      40793.921      25413.993      39           
   2209000  -7829.6429      111.38083     -7941.0238      0.61640401     221.00015      365.73529      302.5064       295.5275       298.11408      40564.081      25270.806      44           
   2210000  -7829.1809      112.25823     -7941.4391      0.61640401     222.74108      322.25065      309.91691      293.12593      297.19343      40461.24       25206.738      44           
   2211000  -7827.6345      113.33643     -7940.971       0.61640401     224.88043      316.16117      302.30593      313.75144      293.08313      40450.427      25200.001      51           
   2212000  -7827.153       114.89752     -7942.0505      0.61640401     227.97792      352.27296      311.51562      309.7243       294.92906      40482.724      25220.122      47           
   2213000  -7827.9883      113.04815     -7941.0364      0.61640401     224.30842      347.55335      308.28805      300.11376      298.33463      40684.241      25345.664      45           
   2214000  -7828.7353      111.59549     -7940.3308      0.61640401     221.42608      245.86139      307.92542      294.48987      298.66174      40478.546      25217.519      54           
   2215000  -7832.4995      111.72237     -7944.2219      0.61640401     221.67783      301.32141      301.2926       301.57313      302.1897       40260.287      25081.547      54           
   2216000  -7829.1066      112.41279     -7941.5194      0.61640401     223.04776      341.21768      304.62609      301.56884      294.42974      40623.243      25307.663      56           
   2217000  -7830.5183      109.71832     -7940.2366      0.61640401     217.70142      284.77318      298.95133      293.54256      291.36078      40411.759      25175.912      56           
   2218000  -7830.6827      108.60195     -7939.2847      0.61640401     215.48634      281.39629      292.76078      292.50461      299.17478      40550.835      25262.554      51           
   2219000  -7829.699       114.29852     -7943.9975      0.61640401     226.78939      279.14231      309.40754      311.91624      295.12071      40400.884      25169.137      59           
   2220000  -7835.7597      108.06357     -7943.8233      0.61640401     214.4181       314.40999      290.80629      290.40372      296.41657      40498.639      25230.037      55           
   2221000  -7828.9586      111.65883     -7940.6174      0.61640401     221.55175      302.65763      296.99082      309.19725      295.08043      40393.401      25164.475      54           
   2222000  -7832.8336      109.96629     -7942.7999      0.61640401     218.19345      287.63789      299.05548      295.28543      290.34444      40564.792      25271.249      53           
   2223000  -7828.4499      111.5531      -7940.003       0.61640401     221.34197      265.78699      305.01452      299.67343      290.51747      40635.384      25315.227      62           
   2224000  -7827.7197      112.59791     -7940.3176      0.61640401     223.41506      286.42353      303.80797      306.99999      295.0278       40429.409      25186.908      58           
   2225000  -7831.3134      108.41698     -7939.7304      0.61640401     215.11934      278.71977      287.38968      300.58164      294.37879      40454.463      25202.516      60           
   2226000  -7833.6738      110.68447     -7944.3582      0.61640401     219.61844      282.4586       300.94781      296.77234      296.2879       40397.728      25167.171      59           
   2227000  -7833.0014      108.36795     -7941.3694      0.61640401     215.02205      237.59416      295.2284       291.38588      292.24041      40689.062      25348.667      59           
   2228000  -7831.2994      111.12233     -7942.4217      0.61640401     220.48723      263.15319      299.79668      303.34042      294.23014      40562.158      25269.608      58           
   2229000  -7831.6063      111.51336     -7943.1196      0.61640401     221.26311      308.83143      297.0396       308.13649      293.22999      40679.874      25342.944      56           
   2230000  -7827.7899      112.96384     -7940.7537      0.61640401     224.14113      271.15944      304.2233       310.90711      291.58584      40367.598      25148.4        59           
   2231000  -7823.9077      114.75992     -7938.6676      0.61640401     227.70488      283.14246      308.647        317.91703      287.99267      40479.099      25217.864      50           
   2232000  -7830.1849      111.53307     -7941.718       0.61640401     221.30222      316.50919      305.55271      296.40165      288.63976      40547.638      25260.563      55           
   2233000  -7829.7535      111.23999     -7940.9935      0.61640401     220.72069      360.43592      300.43179      301.24574      283.42449      40373.89       25152.32       48           
   2234000  -7830.7828      110.08665     -7940.8694      0.61640401     218.43227      374.99045      301.48224      289.50367      287.83623      40497.688      25229.444      45           
   2235000  -7830.7963      109.42065     -7940.2169      0.61640401     217.1108       297.54757      294.43027      297.09421      292.59621      40608.84       25298.69       43           
   2236000  -7831.6369      109.18602     -7940.8229      0.61640401     216.64525      328.43025      301.70399      283.4162       291.69785      40469.653      25211.979      45           
   2237000  -7829.0171      110.4071      -7939.4242      0.61640401     219.0681       303.51722      294.65726      303.95136      292.61769      40540.492      25256.11       41           
   2238000  -7833.0374      109.87088     -7942.9083      0.61640401     218.00413      320.61027      300.01159      292.43163      287.89193      40714.633      25364.598      42           
   2239000  -7829.9609      111.6764      -7941.6373      0.61640401     221.58662      344.18597      299.97125      305.63186      286.25058      40591.864      25288.115      40           
   2240000  -7827.4299      112.94392     -7940.3738      0.61640401     224.10161      277.81344      304.42676      310.91715      287.11176      40357.101      25141.861      47           
   2241000  -7829.6781      112.86984     -7942.5479      0.61640401     223.95462      370.22004      303.11181      309.39498      280.39046      40564.616      25271.14       53           
   2242000  -7827.2559      112.52029     -7939.7762      0.61640401     223.26104      355.41971      304.42684      306.36642      278.00144      40438.052      25192.292      49           
   2243000  -7831.1905      108.76513     -7939.9556      0.61640401     215.81012      326.48895      300.30953      286.59553      273.50756      40612.739      25301.119      52           
   2244000  -7832.4138      110.07138     -7942.4852      0.61640401     218.40197      313.82516      298.45361      298.93867      278.00072      40547.531      25260.496      44           
   2245000  -7830.5399      110.357       -7940.8969      0.61640401     218.96869      306.59456      298.05496      302.2011       276.49821      40749.654      25386.416      51           
   2246000  -7830.2076      110.81468     -7941.0223      0.61640401     219.8768       304.08526      301.78763      300.36895      276.09486      40563.909      25270.699      49           
   2247000  -7826.2305      112.96967     -7939.2002      0.61640401     224.1527       308.28363      310.39223      303.49351      275.76585      40397.373      25166.95       51           
   2248000  -7831.7564      110.43828     -7942.1947      0.61640401     219.12995      302.95111      295.23454      307.38377      274.60751      40462.244      25207.364      65           
   2249000  -7830.3804      109.62236     -7940.0028      0.61640401     217.51103      286.7637       299.27549      296.90576      271.95548      40446.764      25197.719      62           
   2250000  -7834.0296      108.19277     -7942.2223      0.61640401     214.67445      292.42815      294.49268      292.8421       272.4832       40752.01       25387.883      58           
   2251000  -7835.2684      107.97839     -7943.2467      0.61640401     214.24908      309.80385      289.17166      298.97547      268.53701      40503.306      25232.945      63           
   2252000  -7830.1303      111.6523      -7941.7826      0.61640401     221.5388       252.35411      305.85554      304.38899      271.51472      40563.967      25270.735      58           
   2253000  -7832.7095      111.77689     -7944.4864      0.61640401     221.78601      315.79255      304.42899      304.28406      269.75545      40452.359      25201.205      59           
   2254000  -7829.1085      112.90215     -7942.0106      0.61640401     224.01873      315.60829      304.37996      313.60473      266.54376      40535.137      25252.774      66           
   2255000  -7829.8766      108.49153     -7938.3681      0.61640401     215.26725      275.00225      294.12578      298.78851      263.67696      40393.469      25164.518      56           
   2256000  -7831.7004      111.48378     -7943.1842      0.61640401     221.20443      294.03348      306.15133      301.55098      266.77958      40552.33       25263.486      61           
   2257000  -7830.7402      109.4719      -7940.2121      0.61640401     217.21249      306.12231      291.87439      305.83799      272.87299      40726.045      25371.707      47           
   2258000  -7830.7714      110.07262     -7940.844       0.61640401     218.40442      252.51197      304.29257      293.75705      274.49681      40706.334      25359.428      46           
   2259000  -7831.3463      110.75362     -7942.0999      0.61640401     219.75565      321.78456      302.79046      298.59071      272.41467      40657.747      25329.159      49           
   2260000  -7831.6211      111.59596     -7943.217       0.61640401     221.42701      287.43987      307.51134      298.99785      274.52748      40371.113      25150.59       49           
   2261000  -7832.5288      105.95302     -7938.4818      0.61640401     210.23037      271.18383      285.5777       289.58389      276.41655      40555.477      25265.446      61           
   2262000  -7833.5711      109.03754     -7942.6086      0.61640401     216.35063      262.00571      294.2715       302.37895      267.77959      40480.198      25218.548      53           
   2263000  -7830.2017      109.50395     -7939.7057      0.61640401     217.27608      323.58033      296.60687      299.83012      264.48164      40408.803      25174.07       58           
   2264000  -7829.5778      110.92466     -7940.5025      0.61640401     220.09503      246.63238      293.18796      321.54858      258.0154       40602.154      25294.525      63           
   2265000  -7832.9815      107.88632     -7940.8678      0.61640401     214.06641      292.74197      292.28862      296.64941      260.21699      40484.927      25221.494      63           
   2266000  -7829.5161      110.15305     -7939.6692      0.61640401     218.56402      257.89496      295.37286      309.13831      268.31955      40639.476      25317.776      54           
   2267000  -7828.2226      111.65146     -7939.874       0.61640401     221.53713      283.63979      307.44482      301.13693      268.65177      40491.822      25225.79       57           
   2268000  -7833.5851      109.75197     -7943.337       0.61640401     217.7682       284.43452      289.53722      311.61642      276.17437      40690.969      25349.856      47           
   2269000  -7833.0653      110.54728     -7943.6126      0.61640401     219.34624      292.94441      294.40009      310.30741      275.16088      40166.32       25023.007      48           
   2270000  -7835.048       108.77099     -7943.819       0.61640401     215.82174      290.48792      298.86092      291.15097      272.48852      40668.695      25335.979      43           
   2271000  -7828.3252      109.576       -7937.9012      0.61640401     217.41904      249.10462      302.0642       294.79675      269.14047      40617.642      25304.174      42           
   2272000  -7829.151       110.04888     -7939.1999      0.61640401     218.35732      287.50915      296.67285      305.48901      266.7344       40419.441      25180.698      55           
   2273000  -7834.6353      108.71079     -7943.3461      0.61640401     215.70231      264.67736      297.68293      296.00405      261.9045       40792.585      25413.16       49           
   2274000  -7828.4478      111.3709      -7939.8187      0.61640401     220.98046      264.75978      300.56159      311.30545      265.39031      40453.987      25202.219      61           
   2275000  -7831.507       110.63753     -7942.1446      0.61640401     219.5253       273.8424       304.1227       299.13472      267.79248      40551.796      25263.153      49           
   2276000  -7831.4211      110.96249     -7942.3836      0.61640401     220.17009      274.30795      304.15786      300.60225      271.47348      40533.339      25251.654      52           
   2277000  -7829.8904      110.91104     -7940.8014      0.61640401     220.068        309.50714      303.34613      300.05565      269.31211      40556.697      25266.206      57           
   2278000  -7831.7311      109.8068      -7941.5379      0.61640401     217.87698      274.66111      298.4245       302.01611      265.52611      40445.609      25197          62           
   2279000  -7829.7345      108.91321     -7938.6477      0.61640401     216.10393      254.20922      295.38726      300.36809      266.49164      40611.445      25300.313      54           
   2280000  -7832.9359      110.49165     -7943.4276      0.61640401     219.23585      273.56374      304.1001       297.9819       267.92572      40682.753      25344.737      55           
   2281000  -7831.317       110.94706     -7942.264       0.61640401     220.13947      270.95779      300.8321       306.58538      267.63092      40630.009      25311.878      56           
   2282000  -7831.8058      109.85913     -7941.6649      0.61640401     217.98083      338.33258      296.87142      301.50808      262.21473      40640.852      25318.634      63           
   2283000  -7831.2962      108.79428     -7940.0905      0.61640401     215.86795      326.67612      292.65949      298.39315      270.66422      40256.267      25079.043      63           
   2284000  -7832.7493      112.01243     -7944.7618      0.61640401     222.25336      309.55484      301.00925      309.27141      278.865        40645.805      25321.719      60           
   2285000  -7834.4687      111.2992      -7945.7679      0.61640401     220.83819      273.15686      305.58253      298.37729      281.96241      40468.957      25211.545      57           
   2286000  -7831.3855      110.09215     -7941.4776      0.61640401     218.44318      264.12989      306.1614       288.70774      283.85758      40518.813      25242.605      64           
   2287000  -7831.1003      111.85643     -7942.9568      0.61640401     221.94383      287.36641      299.08809      312.22755      278.99715      40514.106      25239.673      60           
   2288000  -7832.8539      110.59807     -7943.452       0.61640401     219.447        319.76258      302.00684      295.54278      281.25001      40521.836      25244.488      75           
   2289000  -7834.1801      109.71222     -7943.8924      0.61640401     217.68932      325.16294      300.73099      291.0571       279.45809      40376.777      25154.119      71           
   2290000  -7829.0571      109.28752     -7938.3446      0.61640401     216.84664      304.9607       301.51158      286.51979      286.17341      40319.799      25118.622      65           
   2291000  -7833.8621      111.60653     -7945.4686      0.61640401     221.44798      257.8713       302.92041      305.38497      282.26045      40759.557      25392.585      56           
   2292000  -7831.8095      108.84009     -7940.6496      0.61640401     215.95885      261.36725      302.52391      284.60128      284.37492      40309.829      25112.411      59           
   2293000  -7829.1678      111.54089     -7940.7087      0.61640401     221.31775      246.50637      297.29196      313.3643       285.7185       40757.429      25391.259      61           
   2294000  -7831.1884      110.90338     -7942.0918      0.61640401     220.05281      264.32316      303.61192      297.26525      289.26085      40471.161      25212.918      61           
   2295000  -7826.8806      112.10019     -7938.9808      0.61640401     222.4275       303.67961      304.52768      302.53518      289.57674      40594.374      25289.678      60           
   2296000  -7829.8891      109.92441     -7939.8136      0.61640401     218.11035      291.00492      296.57139      298.80686      289.16473      40721.529      25368.894      57           
   2297000  -7833.3997      107.39953     -7940.7992      0.61640401     213.10052      292.28947      295.75206      281.5518       286.75024      40412.267      25176.228      70           
   2298000  -7834.3037      108.90416     -7943.2079      0.61640401     216.08598      286.60385      303.76859      282.46001      282.05049      40377.613      25154.64       66           
   2299000  -7832.4769      108.16131     -7940.6382      0.61640401     214.61204      283.68795      287.75805      300.93711      281.59749      40446.301      25197.431      64           
   2300000  -7830.9075      109.7482      -7940.6557      0.61640401     217.76071      275.07873      293.28185      305.85615      278.49354      40869.381      25461.003      57           
   2301000  -7830.6349      111.27865     -7941.9135      0.61640401     220.79741      263.96162      301.38708      307.80427      271.01621      40109.519      24987.621      62           
   2302000  -7832.0713      109.33175     -7941.403       0.61640401     216.93439      324.599        297.07385      295.55616      272.37263      40758.749      25392.081      62           
   2303000  -7830.407       110.00102     -7940.408       0.61640401     218.26235      298.66152      292.7363       308.10618      274.39878      40746.6        25384.513      63           
   2304000  -7829.5811      110.26814     -7939.8493      0.61640401     218.79237      319.99263      296.29858      303.49077      274.09214      40192.11       25039.074      67           
   2305000  -7833.4545      110.77762     -7944.2322      0.61640401     219.80327      266.6414       305.57236      296.45834      275.8492       40533.407      25251.697      66           
   2306000  -7830.6944      110.11077     -7940.8052      0.61640401     218.48011      318.44158      294.76711      304.92058      274.12524      40591.43       25287.844      60           
   2307000  -7831.8297      109.29768     -7941.1274      0.61640401     216.86679      308.07571      294.85621      299.8626       270.79096      40492.365      25226.128      70           
   2308000  -7832.9724      109.63926     -7942.6117      0.61640401     217.54455      263.68173      297.1782       302.54353      267.58516      40484.279      25221.091      61           
   2309000  -7833.6464      107.87658     -7941.523       0.61640401     214.04707      243.93612      283.42186      309.34718      272.79529      40483.947      25220.884      51           
   2310000  -7833.5001      110.53331     -7944.0334      0.61640401     219.31853      271.49776      299.79017      303.64348      272.77581      40383.99       25158.612      56           
   2311000  -7836.1858      107.60184     -7943.7877      0.61640401     213.50195      243.64568      291.11583      296.34201      272.35832      40830.628      25436.861      63           
   2312000  -7834.6845      108.1695      -7942.854       0.61640401     214.62829      265.494        296.51898      291.44538      271.89566      40277.238      25092.107      69           
   2313000  -7833.3262      109.30442     -7942.6306      0.61640401     216.88017      245.80578      302.8845       292.00545      270.67015      40395.581      25165.833      66           
   2314000  -7830.7143      108.29619     -7939.0105      0.61640401     214.87965      274.1332       296.44009      294.78266      259.91579      40893.216      25475.852      60           
   2315000  -7829.6071      110.47545     -7940.0825      0.61640401     219.2037       282.70806      307.13301      294.95383      259.86216      40245.317      25072.221      62           
   2316000  -7831.2057      109.48405     -7940.6897      0.61640401     217.23658      368.4876       296.57249      298.44174      259.27944      40602.371      25294.66       59           
   2317000  -7828.7271      111.79973     -7940.5268      0.61640401     221.83133      245.923        309.34627      303.0456       261.81346      40562.347      25269.726      58           
   2318000  -7830.4373      111.39593     -7941.8332      0.61640401     221.03012      290.07553      301.27094      309.46499      262.02572      40385.819      25159.752      65           
   2319000  -7831.0958      111.053       -7942.1488      0.61640401     220.34968      253.70832      305.98928      301.0652       265.85482      40423.863      25183.453      59           
   2320000  -7833.5752      110.25995     -7943.8351      0.61640401     218.77612      323.02794      297.79287      302.06101      270.18318      40741.424      25381.288      66           
   2321000  -7830.1318      111.31269     -7941.4445      0.61640401     220.86495      281.99202      304.16005      302.71142      271.42392      40491.826      25225.792      67           
   2322000  -7832.4763      110.30245     -7942.7787      0.61640401     218.86045      280.51621      301.79699      297.26759      277.5784       40511.736      25238.196      61           
   2323000  -7832.2509      109.89598     -7942.1468      0.61640401     218.05394      297.41636      297.98145      299.75004      273.47815      40671.132      25337.497      60           
   2324000  -7831.0284      110.52622     -7941.5546      0.61640401     219.30445      295.2847       307.83512      290.28919      272.06378      40355.18       25140.664      62           
   2325000  -7829.5869      109.90897     -7939.4959      0.61640401     218.07971      265.58973      297.89123      302.61619      270.34065      40798.582      25416.897      58           
   2326000  -7832.897       110.01037     -7942.9074      0.61640401     218.2809       278.47825      294.66251      308.59784      266.06599      40261.13       25082.072      67           
   2327000  -7832.9981      109.11874     -7942.1169      0.61640401     216.51174      256.90429      289.02748      310.40885      271.55276      40560.122      25268.34       71           
   2328000  -7828.358       112.90967     -7941.2677      0.61640401     224.03366      268.973        310.72797      304.43444      277.68934      40598.401      25292.187      78           
   2329000  -7833.6079      109.48165     -7943.0895      0.61640401     217.23183      276.86592      293.62294      302.88957      280.14888      40594.173      25289.553      72           
   2330000  -7829.8003      112.04253     -7941.8428      0.61640401     222.3131       312.15894      305.68386      302.13316      278.96325      40449.465      25199.402      73           
   2331000  -7830.0811      111.97887     -7942.06        0.61640401     222.18677      269.70055      306.17917      302.25546      285.02174      40537.006      25253.939      65           
   2332000  -7831.9814      110.93647     -7942.9179      0.61640401     220.11846      262.48355      299.36665      306.18078      280.16511      40500.626      25231.274      64           
   2333000  -7834.32        108.5743      -7942.8943      0.61640401     215.43147      315.93138      293.02855      297.43572      268.63224      40363.631      25145.929      61           
   2334000  -7830.2981      111.97621     -7942.2744      0.61640401     222.1815       249.27974      309.43894      302.24434      268.4377       40711.219      25362.471      54           
   2335000  -7831.7155      109.70036     -7941.4159      0.61640401     217.66579      259.41885      300.95062      297.4501       268.09664      40461.101      25206.651      58           
   2336000  -7836.4616      107.54148     -7944.0031      0.61640401     213.38218      262.1966       293.58404      291.28749      271.60945      40632.399      25313.367      60           
   2337000  -7832.8275      109.03188     -7941.8594      0.61640401     216.3394       265.57676      296.7188       297.44901      272.29697      40421.548      25182.01       59           
   2338000  -7832.27        110.53097     -7942.8009      0.61640401     219.31388      286.57771      306.0456       293.2965       274.21246      40625.761      25309.232      61           
   2339000  -7834.5738      109.92643     -7944.5002      0.61640401     218.11435      261.7785       307.60261      287.33021      275.71863      40527.111      25247.774      59           
   2340000  -7831.8564      109.17812     -7941.0345      0.61640401     216.62958      276.77651      295.57494      298.96024      275.07452      40518.584      25242.462      60           
   2341000  -7828.4263      112.03321     -7940.4595      0.61640401     222.29459      280.1665       300.21817      314.19061      272.03134      40619.258      25305.181      61           
   2342000  -7831.7696      109.84385     -7941.6135      0.61640401     217.9505       320.8078       304.08052      291.17802      265.23693      40454.525      25202.555      61           
   2343000  -7827.4755      112.0908      -7939.5663      0.61640401     222.40887      303.45107      309.01872      301.77735      265.76951      40629.093      25311.308      57           
   2344000  -7831.5509      110.72241     -7942.2733      0.61640401     219.69373      339.60685      308.79967      289.8485       265.71652      40294.692      25102.981      57           
   2345000  -7826.685       110.62476     -7937.3098      0.61640401     219.49997      329.2329       297.76814      304.39122      271.95709      40708.064      25360.505      59           
   2346000  -7828.473       111.60029     -7940.0733      0.61640401     221.43561      273.17258      306.66605      298.76901      283.10603      40531.942      25250.784      52           
   2347000  -7831.8216      110.52355     -7942.3451      0.61640401     219.29915      235.07802      300.764        300.09172      288.7227       40485.073      25221.585      54           
   2348000  -7831.3979      111.67426     -7943.0722      0.61640401     221.58238      260.19224      297.54019      311.59338      291.60159      40559.224      25267.78       56           
   2349000  -7828.3717      113.51738     -7941.8891      0.61640401     225.23946      300.71637      308.05769      307.63101      291.77564      40368.334      25148.859      58           
   2350000  -7830.3426      112.76234     -7943.1049      0.61640401     223.74133      278.04258      314.57209      295.07341      285.27083      40439.522      25193.208      58           
   2351000  -7827.4577      112.60193     -7940.0596      0.61640401     223.42303      280.71757      307.13109      307.28753      275.11497      40576.227      25278.373      57           
   2352000  -7831.6536      110.00432     -7941.6579      0.61640401     218.2689       257.71907      293.32138      308.64032      278.73373      40592.377      25288.434      57           
   2353000  -7831.6691      111.15734     -7942.8264      0.61640401     220.55671      297.71674      302.12708      300.93863      283.06396      40418.031      25179.819      60           
   2354000  -7832.0683      110.1063      -7942.1746      0.61640401     218.47124      291.03383      299.68892      295.61999      288.68144      40735.802      25377.786      56           
   2355000  -7834.6827      109.48853     -7944.1713      0.61640401     217.24547      294.71768      295.15293      297.07382      290.6857       40544.052      25258.328      60           
   2356000  -7830.9078      110.67949     -7941.5873      0.61640401     219.60857      319.7144       297.41312      299.62761      297.14611      40374.213      25152.522      62           
   2357000  -7829.135       110.62251     -7939.7575      0.61640401     219.49551      328.09412      297.65044      299.7673       291.46099      40609.578      25299.15       61           
   2358000  -7830.3534      112.35397     -7942.7073      0.61640401     222.93104      291.34076      309.28172      298.79244      286.95785      40430.528      25187.605      57           
   2359000  -7826.6549      111.73778     -7938.3927      0.61640401     221.70842      328.25813      308.57758      293.14096      287.28396      40636.727      25316.064      51           
   2360000  -7828.6408      111.49193     -7940.1327      0.61640401     221.22059      298.40491      301.65401      303.32432      286.51349      40575.225      25277.749      50           
   2361000  -7828.243       110.36756     -7938.6105      0.61640401     218.98965      256.10372      300.34848      299.28411      285.13761      40678.88       25342.324      53           
   2362000  -7830.8654      110.46319     -7941.3286      0.61640401     219.17939      262.09365      304.66308      292.72571      287.04962      40218.057      25055.239      53           
   2363000  -7828.9185      110.49787     -7939.4163      0.61640401     219.2482       279.4294       307.36731      288.75617      284.68871      40862.521      25456.73       54           
   2364000  -7828.2188      111.92093     -7940.1398      0.61640401     222.07181      268.79491      306.06192      301.43011      286.90957      40371.118      25150.593      53           
   2365000  -7831.9402      110.02046     -7941.9607      0.61640401     218.30092      313.79985      295.29297      299.01467      294.04522      40524.839      25246.359      57           
   2366000  -7830.8717      113.49479     -7944.3665      0.61640401     225.19464      307.36935      297.73855      321.85182      293.84992      40454.199      25202.351      61           
   2367000  -7826.4816      114.02275     -7940.5043      0.61640401     226.2422       282.23279      303.61631      317.0414       299.7418       40639.404      25317.731      57           
   2368000  -7831.434       110.07037     -7941.5044      0.61640401     218.39996      286.47081      294.83325      300.89083      296.94997      40499.326      25230.465      60           
   2369000  -7833.2578      109.01298     -7942.2708      0.61640401     216.30191      325.76668      289.7224       300.08882      289.64081      40508.825      25236.383      59           
   2370000  -7829.919       110.10863     -7940.0276      0.61640401     218.47588      252.33249      293.38811      308.13537      283.43979      40760.069      25392.904      48           
   2371000  -7831.8479      111.60918     -7943.4571      0.61640401     221.45324      318.41981      301.79734      301.13222      292.9709       40316.595      25116.626      63           
   2372000  -7830.6613      109.91314     -7940.5745      0.61640401     218.08799      266.2362       298.68709      295.18298      296.77205      40781.496      25406.252      61           
   2373000  -7832.4992      112.2911      -7944.7903      0.61640401     222.80631      268.98251      302.14748      306.82079      301.25597      40344.615      25134.082      65           
   2374000  -7828.1974      111.21613     -7939.4135      0.61640401     220.67335      256.39246      303.18899      296.69148      308.00128      40563.757      25270.604      72           
   2375000  -7833.4639      110.32485     -7943.7887      0.61640401     218.90489      302.06424      290.41403      306.27429      306.42726      40546.94       25260.128      65           
   2376000  -7830.6751      111.34956     -7942.0246      0.61640401     220.93811      248.75782      302.88267      299.02045      303.84134      40587.619      25285.47       60           
   2377000  -7832.7701      109.1536      -7941.9237      0.61640401     216.58093      273.84682      289.78133      301.27495      301.55956      40632.658      25313.528      65           
   2378000  -7832.6062      109.43386     -7942.04        0.61640401     217.137        296.01633      293.47655      296.62871      300.85022      40454.067      25202.269      72           
   2379000  -7828.8508      113.64046     -7942.4913      0.61640401     225.48367      266.447        302.1675       318.46769      295.24788      40616.698      25303.586      63           
   2380000  -7831.5288      111.79609     -7943.3249      0.61640401     221.8241       290.9869       298.49672      306.74689      303.33879      40392.706      25164.042      75           
   2381000  -7832.542       108.84531     -7941.3873      0.61640401     215.96921      311.49572      294.83746      287.70832      307.46906      40705.192      25358.716      64           
   2382000  -7828.2364      112.66653     -7940.9029      0.61640401     223.55122      332.54091      297.95926      308.82319      314.17551      40434.958      25190.365      68           
   2383000  -7832.7425      109.01036     -7941.7528      0.61640401     216.29671      269.36975      294.95653      289.28796      316.4066       40596.498      25291.002      66           
   2384000  -7828.2366      110.61897     -7938.8556      0.61640401     219.48848      269.34512      299.80046      298.94658      296.2548       40529.872      25249.494      67           
   2385000  -7827.9583      110.3974      -7938.3557      0.61640401     219.04885      282.69291      306.88473      287.42954      289.17129      40629.363      25311.476      60           
   2386000  -7828.754       113.07556     -7941.8296      0.61640401     224.36281      332.14166      307.47084      306.24789      280.97741      40666.311      25334.494      52           
   2387000  -7830.1921      110.71012     -7940.9023      0.61640401     219.66934      287.67658      297.4842       305.22087      282.58467      40392.834      25164.122      48           
   2388000  -7830.8186      111.08968     -7941.9083      0.61640401     220.42247      307.98248      309.57652      288.04671      286.32154      40615.157      25302.626      57           
   2389000  -7833.3025      110.49142     -7943.794       0.61640401     219.23541      377.30078      298.13524      296.11184      290.26394      40579.32       25280.3        53           
   2390000  -7829.6307      111.98272     -7941.6134      0.61640401     222.19441      367.82541      300.18867      302.44406      299.90148      40524.159      25245.935      52           
   2391000  -7830.0163      111.17921     -7941.1956      0.61640401     220.6001       307.62534      296.49824      304.02069      303.471        40440.384      25193.745      44           
   2392000  -7830.1987      110.47839     -7940.6771      0.61640401     219.20956      281.89723      295.87717      299.84156      306.77545      40755.577      25390.105      40           
   2393000  -7829.8139      110.7786      -7940.5925      0.61640401     219.80522      302.91762      291.55686      308.94753      302.13511      40369.596      25149.645      44           
   2394000  -7829.106       111.47114     -7940.5771      0.61640401     221.17935      351.80177      301.95484      297.14783      299.16778      40449.156      25199.21       48           
   2395000  -7821.5002      117.01223     -7938.5125      0.61640401     232.1739       347.85399      321.50224      309.89373      299.84534      40677.999      25341.776      43           
   2396000  -7824.9145      115.10099     -7940.0155      0.61640401     228.38163      299.26579      309.96227      313.59324      304.416        40582.087      25282.024      46           
   2397000  -7830.2165      111.49018     -7941.7067      0.61640401     221.21712      268.70907      296.67551      306.03149      310.56645      40525.2        25246.584      48           
   2398000  -7829.5722      112.65969     -7942.2319      0.61640401     223.53764      301.21528      303.03758      302.50852      316.02766      40288.086      25098.865      46           
   2399000  -7826.0192      114.64076     -7940.6599      0.61640401     227.46847      318.54294      307.87199      312.19584      305.10789      40769.694      25398.9        48           
   2400000  -7828.1267      112.78728     -7940.914       0.61640401     223.79081      335.96772      310.98505      291.93023      308.81078      40537.58       25254.297      46           
   2401000  -7824.7796      115.34745     -7940.1271      0.61640401     228.87066      383.99972      312.97621      308.57957      299.29276      40413.552      25177.029      46           
   2402000  -7827.4         112.29017     -7939.6902      0.61640401     222.80445      351.6783       299.18039      308.1323       297.91876      40389.485      25162.036      41           
   2403000  -7831.6538      108.2355      -7939.8893      0.61640401     214.75923      372.7019       293.28506      285.93432      293.30172      40563.862      25270.67       52           
   2404000  -7829.8652      108.93559     -7938.8008      0.61640401     216.14834      307.94049      297.47133      288.30028      292.69956      40533.409      25251.698      56           
   2405000  -7828.5552      109.96531     -7938.5205      0.61640401     218.19149      317.2794       295.45382      296.33014      302.02106      40293.834      25102.447      49           
   2406000  -7829.0653      110.79609     -7939.8614      0.61640401     219.83991      331.3889       298.11892      296.02879      308.8881       40710.104      25361.776      56           
   2407000  -7827.3862      112.31504     -7939.7012      0.61640401     222.8538       320.44319      303.12991      299.04796      315.56586      40474.474      25214.982      47           
   2408000  -7829.864       111.89701     -7941.761       0.61640401     222.02435      301.07049      299.5895       304.46536      306.09528      40392.732      25164.058      54           
   2409000  -7830.0687      110.70815     -7940.7769      0.61640401     219.66543      233.91194      299.8733       299.95383      296.9285       40442.185      25194.867      40           
   2410000  -7831.8393      109.19683     -7941.0361      0.61640401     216.66669      292.07526      295.28033      295.71255      287.10099      40753.559      25388.848      51           
   2411000  -7831.6953      109.30974     -7941.005       0.61640401     216.89074      325.5532       289.70255      305.07235      279.69091      40628.345      25310.842      51           
   2412000  -7836.3464      107.64499     -7943.9914      0.61640401     213.58755      289.78126      293.65699      289.05946      276.88326      40394.079      25164.897      57           
   2413000  -7831.8938      112.45923     -7944.3531      0.61640401     223.13989      211.66194      303.15419      313.3264       284.75308      40690.475      25349.548      55           
   2414000  -7831.7211      109.15204     -7940.8731      0.61640401     216.57782      230.76976      293.61011      298.89705      296.5853       40379.846      25156.031      57           
   2415000  -7828.5622      112.23894     -7940.8011      0.61640401     222.7028       280.32789      302.84186      304.68097      300.85936      40732.331      25375.624      60           
   2416000  -7829.3609      113.45748     -7942.8183      0.61640401     225.1206       314.13314      300.19646      316.05642      299.66334      40473.475      25214.36       66           
   2417000  -7829.5657      112.32731     -7941.893       0.61640401     222.87815      326.70679      303.46912      303.87586      290.99352      40664.747      25333.519      68           
   2418000  -7830.9604      111.21958     -7942.18        0.61640401     220.68021      298.38304      297.62124      305.90929      291.72093      40367.343      25148.242      64           
   2419000  -7830.3479      111.05762     -7941.4055      0.61640401     220.35885      340.31306      302.82752      295.03196      288.13995      40584.147      25283.307      68           
   2420000  -7832.3542      110.85591     -7943.2101      0.61640401     219.95862      293.92255      299.55795      302.16113      285.1063       40611.646      25300.439      63           
   2421000  -7831.7536      108.93776     -7940.6913      0.61640401     216.15266      281.139        291.11872      298.44338      296.51582      40457.925      25204.673      70           
   2422000  -7833.9407      107.56377     -7941.5045      0.61640401     213.42641      254.1254       289.22673      292.16129      298.36116      40626.35       25309.599      66           
   2423000  -7831.089       112.29931     -7943.3883      0.61640401     222.82259      234.79222      301.52748      309.7999       301.27859      40330.719      25125.425      63           
   2424000  -7831.8179      108.61606     -7940.434       0.61640401     215.51433      278.90719      297.9871       283.7711       305.87544      40658.946      25329.905      68           
   2425000  -7829.1248      111.79283     -7940.9176      0.61640401     221.81764      272.45833      301.84214      303.9047       300.47338      40278.197      25092.705      80           
   2426000  -7830.563       110.13134     -7940.6943      0.61640401     218.52094      318.50342      293.5734       301.34851      295.91563      40586.612      25284.843      73           
   2427000  -7827.9975      113.15235     -7941.1499      0.61640401     224.51518      298.46479      310.02498      302.79207      288.11948      40430.043      25187.303      69           
   2428000  -7832.3627      110.92298     -7943.2857      0.61640401     220.09169      356.09728      297.21006      303.525        280.55314      40480.805      25218.926      62           
   2429000  -7831.6008      110.10921     -7941.7101      0.61640401     218.47703      367.2721       300.89803      291.65628      279.20562      40749.755      25386.478      61           
   2430000  -7831.6158      110.60698     -7942.2228      0.61640401     219.46469      346.07722      296.66486      302.13235      282.49035      40374.938      25152.973      63           
   2431000  -7832.8974      110.94387     -7943.8413      0.61640401     220.13314      281.57467      300.21976      301.52166      290.08592      40456.786      25203.963      70           
   2432000  -7829.8823      112.2681      -7942.1504      0.61640401     222.76065      285.7554       304.0279       306.64453      285.29715      40383.525      25158.323      69           
   2433000  -7826.9044      111.96028     -7938.8646      0.61640401     222.14988      306.91829      309.01821      297.12071      278.02746      40778.889      25404.628      75           
   2434000  -7829.7185      110.04943     -7939.7679      0.61640401     218.35841      271.58121      307.76262      287.17857      277.83785      40124.669      24997.059      68           
   2435000  -7830.7811      110.19498     -7940.9761      0.61640401     218.64721      321.24725      296.44065      304.1188       267.84463      40540.682      25256.229      67           
   2436000  -7833.7174      108.5898      -7942.3072      0.61640401     215.46224      317.11912      290.49544      301.58833      267.56039      40734.995      25377.283      59           
   2437000  -7829.7815      110.53404     -7940.3156      0.61640401     219.31996      315.65478      296.29191      306.9397       269.23047      40424.336      25183.747      69           
   2438000  -7830.6151      111.28458     -7941.8997      0.61640401     220.80918      371.27672      306.51199      292.49393      272.64874      40501.078      25231.556      71           
   2439000  -7832.4919      111.5019      -7943.9938      0.61640401     221.24038      275.64165      299.99196      308.06025      282.94278      40467.482      25210.626      70           
   2440000  -7837.0455      105.68781     -7942.7334      0.61640401     209.70415      261.84387      290.25586      279.08433      285.21728      40574.984      25277.599      65           
   2441000  -7836.1253      106.1489      -7942.2742      0.61640401     210.61905      304.7194       276.67376      299.19079      288.94321      40379.428      25155.77       67           
   2442000  -7829.4563      110.91638     -7940.3726      0.61640401     220.07859      282.42087      297.40475      306.0231       287.21275      40635.445      25315.265      58           
   2443000  -7832.6691      111.84235     -7944.5115      0.61640401     221.9159       313.95253      297.86774      311.47388      283.24669      40370.884      25150.448      58           
   2444000  -7834.2408      108.34151     -7942.5823      0.61640401     214.96958      328.26822      292.2368       293.00514      281.97101      40636.779      25316.096      59           
   2445000  -7832.0108      110.39455     -7942.4053      0.61640401     219.04319      302.49181      297.03743      302.7887       281.90002      40511.085      25237.79       56           
   2446000  -7829.7095      112.21364     -7941.9231      0.61640401     222.65261      309.51008      308.46376      299.3806       280.58191      40514.58       25239.968      63           
   2447000  -7827.9287      111.23187     -7939.1606      0.61640401     220.70459      261.43151      301.57532      302.86534      289.8495       40635.735      25315.445      62           
   2448000  -7832.2191      109.16157     -7941.3807      0.61640401     216.59673      247.91696      290.08538      304.84625      289.84631      40403.903      25171.018      55           
   2449000  -7831.9605      109.97523     -7941.9357      0.61640401     218.21119      295.8581       298.78049      295.55087      289.53602      40608.031      25298.187      55           
   2450000  -7832.691       110.68848     -7943.3795      0.61640401     219.6264       327.40626      303.31566      291.14189      294.0019       40404.007      25171.083      65           
   2451000  -7830.2219      111.07135     -7941.2932      0.61640401     220.38609      278.34922      303.66654      297.19202      291.05997      40666.848      25334.829      62           
   2452000  -7829.3679      109.21112     -7938.5791      0.61640401     216.69506      286.30572      295.17865      296.27837      287.11797      40339.216      25130.719      59           
   2453000  -7830.4151      109.85314     -7940.2683      0.61640401     217.96893      325.67331      299.40909      292.70851      286.79774      40607.153      25297.639      57           
   2454000  -7828.4045      112.86327     -7941.2678      0.61640401     223.9416       328.20073      303.63225      309.45434      284.99803      40675.829      25340.424      55           
   2455000  -7830.0347      110.63716     -7940.6719      0.61640401     219.52457      354.02645      299.25582      296.58961      290.61999      40267.217      25085.865      54           
   2456000  -7830.1663      109.95043     -7940.1167      0.61640401     218.16197      292.2911       296.94324      297.27278      293.80291      40485.675      25221.96       53           
   2457000  -7831.8629      111.8086      -7943.6715      0.61640401     221.84893      271.80643      303.28012      301.33817      300.17871      40629.397      25311.497      56           
   2458000  -7833.6602      109.7758      -7943.436       0.61640401     217.81547      296.95616      296.1534       295.7575       298.39649      40639.845      25318.006      61           
   2459000  -7831.1069      112.16275     -7943.2696      0.61640401     222.55163      328.17758      301.51377      304.04652      297.88418      40185.726      25035.097      61           
   2460000  -7834.7208      110.32205     -7945.0429      0.61640401     218.89933      280.58258      297.04538      300.38046      294.68262      40743.087      25382.324      60           
   2461000  -7829.6714      110.24272     -7939.9141      0.61640401     218.74194      276.19158      295.37696      304.23587      287.90015      40316.262      25116.419      64           
   2462000  -7831.4529      111.33866     -7942.7915      0.61640401     220.91649      280.15661      296.94281      310.31363      286.11175      40539.716      25255.627      63           
   2463000  -7832.1706      108.80057     -7940.9711      0.61640401     215.88044      235.53644      295.56107      293.04439      296.25205      40588.173      25285.815      55           
   2464000  -7832.0871      109.53732     -7941.6244      0.61640401     217.34229      295.12593      302.09802      286.1179       294.55006      40702.571      25357.084      57           
   2465000  -7829.0399      111.74052     -7940.7804      0.61640401     221.71384      271.55595      305.05055      297.1453       302.82037      40740.667      25380.817      43           
   2466000  -7827.5449      111.56458     -7939.1095      0.61640401     221.36475      311.65558      302.67021      296.43354      307.887        40275.376      25090.948      45           
   2467000  -7826.0975      114.52088     -7940.6183      0.61640401     227.2306       282.55729      309.24772      309.70162      310.7534       40495.366      25227.998      57           
   2468000  -7830.8818      111.33983     -7942.2216      0.61640401     220.91881      339.72439      301.65377      294.73287      307.40174      40590.648      25287.357      58           
   2469000  -7830.238       110.48355     -7940.7216      0.61640401     219.21978      284.65205      291.19221      305.86012      311.57907      40596.236      25290.839      54           
   2470000  -7830.7317      110.19794     -7940.9296      0.61640401     218.65308      295.85821      295.06063      296.71104      314.23308      40311.934      25113.722      54           
   2471000  -7830.9729      111.40003     -7942.3729      0.61640401     221.03826      322.81792      295.10101      304.00557      315.02477      40590.095      25287.013      63           
   2472000  -7832.2436      109.14751     -7941.3911      0.61640401     216.56883      299.80361      285.51355      302.54268      315.46083      40543.811      25258.178      62           
   2473000  -7829.5192      111.91307     -7941.4323      0.61640401     222.05623      293.69718      301.97438      297.74579      321.13324      40384.331      25158.825      57           
   2474000  -7830.6745      111.03388     -7941.7083      0.61640401     220.31174      259.21811      302.06573      292.7108       320.81266      40557.494      25266.702      53           
   2475000  -7828.1185      110.32142     -7938.4399      0.61640401     218.89808      296.71006      296.60842      295.02883      315.36085      40497.875      25229.561      55           
   2476000  -7829.7028      110.83995     -7940.5428      0.61640401     219.92694      362.69176      299.4756       292.16765      311.09938      40730.671      25374.589      57           
   2477000  -7829.6289      110.60972     -7940.2386      0.61640401     219.47012      369.71325      289.79986      305.67088      304.35416      40511.172      25237.845      62           
   2478000  -7831.0474      110.62998     -7941.6774      0.61640401     219.51032      302.28606      296.76099      299.6209       303.86821      40534.532      25252.398      60           
   2479000  -7832.6825      108.94365     -7941.6262      0.61640401     216.16433      322.03456      296.43209      287.86934      297.21078      40575.18       25277.721      62           
   2480000  -7835.2027      109.4754      -7944.6781      0.61640401     217.21944      307.58098      292.87044      297.44202      299.80979      40373.072      25151.81       57           
   2481000  -7828.0867      111.46638     -7939.5531      0.61640401     221.16991      308.01563      299.7355       300.64892      306.09609      40372.539      25151.479      54           
   2482000  -7831.9245      109.99919     -7941.9237      0.61640401     218.25873      320.11054      297.45982      292.24054      306.43399      40468.16       25211.049      57           
   2483000  -7830.4699      111.64107     -7942.111       0.61640401     221.51652      356.97539      286.44114      320.97396      297.70581      40692.771      25350.978      60           
   2484000  -7828.7934      112.93326     -7941.7267      0.61640401     224.08046      373.92874      299.96422      309.92804      298.9811       40489.991      25224.649      51           
   2485000  -7828.8085      110.32431     -7939.1328      0.61640401     218.90381      348.31784      299.44632      292.42117      298.93615      40618.674      25304.817      49           
   2486000  -7827.3904      112.31202     -7939.7024      0.61640401     222.84782      342.91809      300.55104      303.70094      307.7956       40498.939      25230.224      51           
   2487000  -7831.6346      111.26098     -7942.8956      0.61640401     220.76235      258.92355      300.77378      298.30255      313.32611      40552.729      25263.734      53           
   2488000  -7825.2575      114.27398     -7939.5315      0.61640401     226.74069      366.29334      312.13179      298.0818       314.10779      40503.431      25233.022      59           
   2489000  -7831.1895      110.69614     -7941.8856      0.61640401     219.6416       306.48168      297.26113      299.53583      302.3776       40684.203      25345.641      61           
   2490000  -7827.3535      111.70931     -7939.0628      0.61640401     221.65192      242.64426      303.36937      301.27655      304.90282      40381.833      25157.268      63           
   2491000  -7832.0832      111.10846     -7943.1916      0.61640401     220.45972      289.23491      303.13344      294.73065      303.14382      40517.853      25242.007      64           
   2492000  -7829.3231      110.40427     -7939.7273      0.61640401     219.06248      315.20345      297.18951      295.74445      306.87631      40444.092      25196.055      70           
   2493000  -7828.7436      111.93046     -7940.674       0.61640401     222.09072      341.30563      297.39344      306.37157      302.71349      40479.818      25218.312      64           
   2494000  -7830.12        113.36975     -7943.4897      0.61640401     224.94654      387.44701      301.44478      308.29636      301.87966      40700.748      25355.948      67           
   2495000  -7829.0563      110.90372     -7939.96        0.61640401     220.05347      367.93226      294.63933      301.02088      301.195        40559.67       25268.058      71           
   2496000  -7833.5898      106.99032     -7940.5801      0.61640401     212.28857      326.89477      287.8587       283.09882      308.49448      40489.88       25224.58       61           
   2497000  -7831.5638      109.89763     -7941.4614      0.61640401     218.0572       306.08592      290.88638      301.58182      308.87503      40781.042      25405.97       64           
   2498000  -7834.9845      109.76846     -7944.7529      0.61640401     217.80092      274.02588      294.23321      298.66248      303.53819      40354.426      25140.194      61           
   2499000  -7830.439       111.50938     -7941.9483      0.61640401     221.25523      240.76294      292.9942       314.8757       305.87723      40595.873      25290.612      59           
   2500000  -7828.972       111.1031      -7940.0751      0.61640401     220.4491       275.49554      295.74576      305.90302      305.4675       40350.61       25137.817      61           
   2501000  -7829.6828      111.04404     -7940.7269      0.61640401     220.3319       325.9711       298.56701      298.15543      306.22676      40523.963      25245.814      61           
   2502000  -7830.1282      108.97597     -7939.1041      0.61640401     216.22847      331.81724      294.00339      288.27029      309.54395      40657.205      25328.821      61           
   2503000  -7832.3241      110.3556      -7942.6797      0.61640401     218.9659       278.10539      300.0451       293.01191      309.19878      40813.934      25426.461      67           
   2504000  -7828.2256      111.64775     -7939.8733      0.61640401     221.52978      310.68984      299.16821      302.32692      307.57933      40324.306      25121.43       68           
   2505000  -7831.7267      107.97632     -7939.7031      0.61640401     214.24497      332.33165      297.69846      277.61097      297.38534      40420.415      25181.305      75           
   2506000  -7833.0578      108.81326     -7941.8711      0.61640401     215.90561      301.23599      294.77624      291.49083      292.98157      40650.283      25324.509      76           
   2507000  -7830.6445      109.61265     -7940.2571      0.61640401     217.49176      316.74702      297.58326      291.8519       294.50914      40463.974      25208.441      76           
   2508000  -7829.8617      111.34279     -7941.2045      0.61640401     220.92468      273.24018      301.54084      300.91519      298.84567      40652.267      25325.745      66           
   2509000  -7834.1756      108.67251     -7942.8481      0.61640401     215.62635      234.36132      301.25863      282.18765      304.43255      40388.867      25161.65       63           
   2510000  -7830.103       111.55093     -7941.6539      0.61640401     221.33766      293.43158      303.08029      294.54675      317.75479      40655.074      25327.494      72           
   2511000  -7832.0531      110.96428     -7943.0174      0.61640401     220.17365      332.2043       297.13935      296.55588      316.69075      40350.792      25137.931      73           
   2512000  -7832.5723      110.60045     -7943.1727      0.61640401     219.45173      320.36292      297.47224      293.02844      321.07103      40563.023      25270.147      75           
   2513000  -7829.2077      111.52744     -7940.7352      0.61640401     221.29106      357.5935       294.47417      305.36656      307.89079      40390.439      25162.63       67           
   2514000  -7828.1205      113.55283     -7941.6733      0.61640401     225.3098       302.23906      305.9094       308.75817      300.76202      40743.199      25382.394      74           
   2515000  -7827.3637      113.31279     -7940.6765      0.61640401     224.83353      319.25486      310.89132      299.2677       296.6854       40630.702      25312.31       73           
   2516000  -7829.8423      110.98795     -7940.8303      0.61640401     220.2206       250.77454      304.66893      295.57903      297.69066      40392.389      25163.844      72           
   2517000  -7828.8226      110.09014     -7938.9127      0.61640401     218.43918      280.92501      303.30548      286.62827      306.18539      40583.971      25283.197      65           
   2518000  -7832.2906      110.85922     -7943.1498      0.61640401     219.96517      267.03061      301.57887      293.95728      314.72125      40359.484      25143.345      68           
   2519000  -7831.1971      110.14732     -7941.3444      0.61640401     218.55265      323.14991      294.88171      293.46662      321.24124      40813.936      25426.462      67           
   2520000  -7831.5032      111.03068     -7942.5338      0.61640401     220.30538      298.45433      304.33095      288.03         318.99692      40440.611      25193.886      61           
   2521000  -7827.7996      113.55712     -7941.3567      0.61640401     225.31831      304.17406      305.20241      305.85863      317.5219       40712.732      25363.414      68           
   2522000  -7828.9107      112.79352     -7941.7042      0.61640401     223.80318      324.26357      298.39262      310.88989      308.48242      40414.012      25177.316      74           
   2523000  -7828.6154      111.53117     -7940.1466      0.61640401     221.29846      327.9217       298.37213      302.8528       301.46117      40449.402      25199.363      71           
   2524000  -7827.0132      112.43242     -7939.4456      0.61640401     223.0867       358.05891      300.97857      305.79186      298.14966      40450.215      25199.87       48           
   2525000  -7833.2621      108.17897     -7941.4411      0.61640401     214.64708      327.35326      285.967        296.48323      302.54642      40548.95       25261.38       49           
   2526000  -7832.554       108.87998     -7941.434       0.61640401     216.038        284.00212      291.89708      294.80419      303.22132      40793.355      25413.641      49           
   2527000  -7830.6437      110.1827      -7940.8264      0.61640401     218.62285      288.44452      294.52465      301.13278      300.4121       40469.502      25211.885      50           
   2528000  -7830.4652      111.68032     -7942.1455      0.61640401     221.59439      311.49324      293.18093      311.06398      309.08061      40684.469      25345.806      50           
   2529000  -7831.3716      110.35894     -7941.7306      0.61640401     218.97253      313.87821      295.70743      297.57048      308.03676      40225.862      25060.101      49           
   2530000  -7831.6713      110.41335     -7942.0847      0.61640401     219.0805       259.64854      299.33516      295.46053      306.21609      40508.858      25236.403      47           
   2531000  -7828.8138      111.28222     -7940.096       0.61640401     220.80448      260.88734      296.24261      306.96418      304.31478      40581.31       25281.539      45           
   2532000  -7832.6161      110.142       -7942.7581      0.61640401     218.54208      322.33536      295.38864      296.52042      306.20994      40550.095      25262.093      49           
   2533000  -7823.2054      115.03        -7938.2354      0.61640401     228.24079      290.89054      314.02412      306.7563       307.41355      40522.298      25244.776      56           
   2534000  -7830.6152      111.02497     -7941.6401      0.61640401     220.29407      324.86718      306.40536      286.17555      306.72133      40548.173      25260.896      65           
   2535000  -7828.016       112.04241     -7940.0584      0.61640401     222.31285      313.75842      303.24222      298.58229      309.57351      40435.5        25190.702      59           
   2536000  -7828.8835      113.10683     -7941.9903      0.61640401     224.42485      277.87158      302.20704      310.14407      309.57653      40369.97       25149.878      59           
   2537000  -7829.8914      109.84066     -7939.7321      0.61640401     217.94417      304.44134      296.02892      292.99587      310.66328      40600.28       25293.357      58           
   2538000  -7831.784       111.60496     -7943.3889      0.61640401     221.44487      314.57249      298.58651      301.36213      313.02551      40513.413      25239.241      62           
   2539000  -7826.8288      113.05605     -7939.8848      0.61640401     224.32411      309.78367      307.59844      299.86813      309.91011      40534.725      25252.518      64           
   2540000  -7826.1035      113.41014     -7939.5137      0.61640401     225.02669      276.76024      299.7892       314.89952      315.11478      40445.164      25196.723      62           
   2541000  -7826.5227      113.95424     -7940.4769      0.61640401     226.10627      282.5387       312.11374      300.55693      314.17069      40671.458      25337.7        64           
   2542000  -7826.9473      112.28931     -7939.2366      0.61640401     222.80274      301.96295      305.90119      296.40903      312.66187      40293.609      25102.306      61           
   2543000  -7829.0305      112.03679     -7941.0672      0.61640401     222.3017       363.09516      302.18655      295.39789      318.84121      40573.618      25276.748      53           
   2544000  -7831.1766      112.21671     -7943.3933      0.61640401     222.65868      325.1894       302.8701       297.41998      320.45028      40758.302      25391.803      43           
   2545000  -7828.9029      111.85799     -7940.7609      0.61640401     221.94692      344.53788      305.8957       290.01137      316.69668      40550.9        25262.595      51           
   2546000  -7828.8506      112.61632     -7941.4669      0.61640401     223.45159      301.73074      302.04275      303.39961      317.16773      40543.972      25258.278      52           
   2547000  -7827.1334      114.85345     -7941.9868      0.61640401     227.89048      295.89871      308.59688      311.37992      314.76028      40571.144      25275.206      51           
   2548000  -7828.2811      111.78781     -7940.0689      0.61640401     221.80767      266.58755      306.28814      292.14009      318.75624      40578.605      25279.855      51           
   2549000  -7827.4236      112.77485     -7940.1984      0.61640401     223.76615      231.93236      304.42485      302.962        323.91929      40444.609      25196.377      53           
   2550000  -7827.1138      112.71963     -7939.8334      0.61640401     223.65657      288.14079      303.52002      302.02654      321.06615      40520.32       25243.544      63           
   2551000  -7828.7609      112.5917      -7941.3526      0.61640401     223.40275      244.92364      306.28878      297.92778      326.41447      40428.957      25186.626      59           
   2552000  -7827.0216      112.37174     -7939.3933      0.61640401     222.96631      238.83278      303.26184      300.85301      325.94791      40669.952      25336.762      54           
   2553000  -7827.3694      112.47057     -7939.8399      0.61640401     223.16239      251.87969      306.70673      296.73391      321.78635      40469.552      25211.916      52           
   2554000  -7831.2754      109.79549     -7941.0709      0.61640401     217.85455      305.42365      298.1464       288.88587      313.21178      40329.852      25124.885      66           
   2555000  -7833.039       110.76723     -7943.8062      0.61640401     219.78265      319.73033      295.5667       302.14685      300.21957      40727.447      25372.581      69           
   2556000  -7832.1661      108.24795     -7940.414       0.61640401     214.78394      294.70968      291.63026      289.73682      304.1572       40452.15       25201.075      63           
   2557000  -7827.9754      112.0772      -7940.0526      0.61640401     222.38187      285.33285      304.76237      299.39931      304.8897       40533.613      25251.825      63           
   2558000  -7828.8008      113.13303     -7941.9338      0.61640401     224.47684      310.85922      304.10015      306.02141      307.96693      40628.594      25310.997      71           
   2559000  -7830.8992      111.36323     -7942.2624      0.61640401     220.96524      326.72881      298.11587      299.49645      311.90624      40690.92       25349.825      74           
   2560000  -7833.4208      110.17706     -7943.5979      0.61640401     218.61165      311.9223       298.88295      289.17916      317.45082      40337.323      25129.539      64           
   2561000  -7828.135       114.40925     -7942.5442      0.61640401     227.0091       318.44108      310.64081      302.35978      320.70971      40572.2        25275.864      66           
   2562000  -7832.3775      111.30686     -7943.6843      0.61640401     220.85339      292.36898      295.04563      304.9106       316.26695      40796.392      25415.533      65           
   2563000  -7828.4456      112.77253     -7941.2181      0.61640401     223.76154      307.1958       303.02496      304.27854      311.68459      40543.006      25257.677      60           
   2564000  -7831.7014      110.27169     -7941.9731      0.61640401     218.79941      283.58537      300.99854      291.52977      304.1637       40517.661      25241.887      55           
   2565000  -7828.9764      113.92964     -7942.906       0.61640401     226.05746      296.57128      302.71645      315.67116      304.95916      40449.622      25199.5        62           
   2566000  -7828.4974      112.43414     -7940.9315      0.61640401     223.09011      283.77003      296.49606      311.90983      314.91446      40581.509      25281.663      57           
   2567000  -7829.5212      112.41161     -7941.9329      0.61640401     223.04541      259.63057      301.36216      305.14432      316.83742      40362.069      25144.956      53           
   2568000  -7830.5762      109.72289     -7940.2991      0.61640401     217.7105       338.75012      290.4115       294.67766      327.895        40566.169      25272.107      54           
   2569000  -7833.8033      109.27626     -7943.0796      0.61640401     216.8243       290.69573      290.04516      292.86988      333.31534      40635.393      25315.232      48           
   2570000  -7829.8656      112.50615     -7942.3717      0.61640401     223.23299      304.48496      299.88133      301.62275      334.08417      40392.076      25163.65       48           
   2571000  -7828.4182      112.02358     -7940.4417      0.61640401     222.2755       264.61344      297.02379      303.76564      334.44718      40631.719      25312.943      45           
   2572000  -7829.3897      112.59139     -7941.9811      0.61640401     223.40213      276.55208      307.06313      293.20068      331.36511      40650.25       25324.488      46           
   2573000  -7826.6993      111.41092     -7938.1102      0.61640401     221.05986      295.18978      293.65662      304.36378      327.75457      40558.486      25267.321      39           
   2574000  -7828.8579      111.88745     -7940.7454      0.61640401     222.00538      314.94388      299.74931      300.62114      317.79848      40338.538      25130.296      40           
   2575000  -7831.4334      111.03865     -7942.4721      0.61640401     220.32121      284.85697      297.50764      298.19996      320.32721      40462.99       25207.828      44           
   2576000  -7823.6786      113.49466     -7937.1732      0.61640401     225.19439      286.52068      309.7824       298.6871       318.48971      40734.194      25376.784      42           
   2577000  -7829.005       111.34817     -7940.3532      0.61640401     220.93535      259.80765      295.98006      303.78975      322.33782      40395.394      25165.717      52           
   2578000  -7828.0697      110.88032     -7938.95        0.61640401     220.00706      303.81251      295.70685      297.57066      325.71043      40377.48       25154.557      49           
   2579000  -7827.7348      110.94827     -7938.6831      0.61640401     220.14187      323.68899      293.68926      299.5239       328.68167      40637.535      25316.567      49           
   2580000  -7824.3139      113.4554      -7937.7693      0.61640401     225.11649      286.59704      306.67185      302.59005      321.85715      40467.424      25210.591      55           
   2581000  -7828.1174      112.64146     -7940.7589      0.61640401     223.50149      320.58378      300.43429      303.35406      324.66748      40627.494      25310.312      58           
   2582000  -7831.4946      109.79202     -7941.2866      0.61640401     217.84766      297.83801      294.68353      292.56679      321.18866      40592.392      25288.444      60           
   2583000  -7828.5911      113.27089     -7941.862       0.61640401     224.75039      297.59906      303.62313      305.42804      321.50114      40415.363      25178.157      65           
   2584000  -7825.319       114.03916     -7939.3582      0.61640401     226.27476      338.1332       308.80921      301.25028      320.64559      40442.226      25194.892      59           
   2585000  -7829.5794      111.43637     -7941.0157      0.61640401     221.11036      255.32044      304.13948      294.7046       312.09771      40619.704      25305.459      46           
   2586000  -7826.961       112.49171     -7939.4527      0.61640401     223.20434      322.88277      307.33071      295.41377      309.92169      40572.341      25275.952      49           
   2587000  -7826.9472      112.86043     -7939.8076      0.61640401     223.93596      283.16246      302.83428      306.27653      311.46739      40488.143      25223.498      45           
   2588000  -7828.2063      111.54267     -7939.749       0.61640401     221.32128      287.01935      304.72738      293.79578      309.7667       40837.148      25440.923      45           
   2589000  -7827.6528      112.26906     -7939.9219      0.61640401     222.76256      343.95294      298.1485       307.04294      306.87573      40340.341      25131.42       53           
   2590000  -7828.3108      112.6047      -7940.9154      0.61640401     223.42853      326.1227       301.10799      306.63175      304.53502      40485.571      25221.896      54           
   2591000  -7825.9431      114.4532      -7940.3963      0.61640401     227.09631      351.27095      310.46008      306.11087      300.51685      40232.151      25064.019      58           
   2592000  -7830.1307      112.50825     -7942.639       0.61640401     223.23717      311.2911       299.68819      309.27496      302.53249      40705.924      25359.172      55           
   2593000  -7831.8324      109.39996     -7941.2324      0.61640401     217.06974      322.31053      293.00186      294.67257      304.93246      40601.781      25294.293      55           
   2594000  -7829.0262      111.30653     -7940.3327      0.61640401     220.85273      308.30568      303.97051      292.89295      307.09261      40471.083      25212.87       53           
   2595000  -7828.1235      110.54217     -7938.6657      0.61640401     219.3361       251.77093      292.52196      306.24778      311.97819      40678.023      25341.79       60           
   2596000  -7830.6584      111.41952     -7942.0779      0.61640401     221.07692      253.51114      300.50845      299.88521      316.66983      40605.837      25296.82       63           
   2597000  -7827.1606      113.4123      -7940.5729      0.61640401     225.03096      300.01552      307.31903      301.13902      320.38414      40530.515      25249.895      69           
   2598000  -7828.8031      111.59571     -7940.3988      0.61640401     221.42652      254.44112      301.53147      298.94948      321.79265      40434.832      25190.286      71           
   2599000  -7830.2455      110.75441     -7940.9999      0.61640401     219.75722      263.00238      301.47028      294.0171       314.73893      40724.64       25370.832      76           
   2600000  -7829.1229      110.78309     -7939.906       0.61640401     219.81412      259.65324      303.21512      291.25632      316.56572      40443.02       25195.387      72           
   2601000  -7826.3325      111.47366     -7937.8062      0.61640401     221.18435      301.89754      297.83865      303.90405      306.26154      40672.552      25338.382      72           
   2602000  -7827.8288      113.22745     -7941.0562      0.61640401     224.66419      308.55874      308.71096      300.77934      304.65883      40448.507      25198.805      72           
   2603000  -7832.1439      111.935       -7944.0789      0.61640401     222.09972      298.10866      301.5531       301.58863      308.52894      40639.907      25318.045      77           
   2604000  -7832.0211      109.86273     -7941.8838      0.61640401     217.98796      308.84053      290.01418      300.56497      316.28018      40542.079      25257.099      75           
   2605000  -7830.4097      112.8579      -7943.2676      0.61640401     223.93093      293.33589      295.5706       314.87593      320.77167      40391.612      25163.361      74           
   2606000  -7823.7902      114.86237     -7938.6525      0.61640401     227.90817      297.77718      312.5867       303.79614      322.97161      40666.7        25334.736      69           
   2607000  -7826.941       113.66013     -7940.6011      0.61640401     225.5227       244.54324      303.42373      311.21996      324.88618      40384.983      25159.231      65           
   2608000  -7826.8056      114.78068     -7941.5863      0.61640401     227.74609      248.69915      308.64608      312.3269       322.6809       40777.066      25403.492      68           
   2609000  -7828.0565      111.27668     -7939.3332      0.61640401     220.7935       259.56287      297.76669      301.24336      323.01982      40297.521      25104.744      66           
   2610000  -7830.7269      111.52944     -7942.2564      0.61640401     221.29503      370.99557      294.09239      304.23996      312.71378      40689.253      25348.787      62           
   2611000  -7830.6987      110.40392     -7941.1026      0.61640401     219.06178      393.44118      291.98565      296.9566       314.37464      40455.128      25202.93       65           
   2612000  -7828.8612      111.49224     -7940.3534      0.61640401     221.22121      335.10175      295.23792      303.60616      314.90672      40521.778      25244.452      72           
   2613000  -7830.8186      111.07618     -7941.8947      0.61640401     220.39568      298.65615      300.29422      293.24715      323.84789      40459.239      25205.491      62           
   2614000  -7830.019       112.07667     -7942.0956      0.61640401     222.38083      300.25434      298.38637      303.53618      323.65376      40851.659      25449.963      57           
   2615000  -7831.236       111.09181     -7942.3278      0.61640401     220.42668      290.4121       292.2702       304.53523      329.69398      40566.106      25272.068      67           
   2616000  -7828.5524      113.71543     -7942.2679      0.61640401     225.63244      290.49507      306.96929      301.82863      331.82613      40329.874      25124.899      66           
   2617000  -7827.5085      112.26795     -7939.7764      0.61640401     222.76036      282.21588      295.3345       311.1491       322.05721      40855.71       25452.486      68           
   2618000  -7830.6158      111.13942     -7941.7553      0.61640401     220.52114      280.50825      295.49696      305.45144      309.88507      40168.46       25024.34       72           
   2619000  -7830.8279      111.06598     -7941.8939      0.61640401     220.37543      321.37174      298.66357      297.63786      309.02038      40847.276      25447.233      69           
   2620000  -7832.0117      109.11463     -7941.1263      0.61640401     216.50359      314.78856      293.84571      290.43079      309.40924      40625.471      25309.051      77           
   2621000  -7830.2858      112.03546     -7942.3212      0.61640401     222.29907      249.69516      302.84783      301.91957      314.42075      40605.123      25296.375      65           
   2622000  -7829.6659      111.80419     -7941.4701      0.61640401     221.84017      276.1038       296.50229      306.93549      318.28352      40501.336      25231.717      62           
   2623000  -7832.811       108.42384     -7941.2348      0.61640401     215.13295      241.7217       289.98653      291.73352      327.1083       40711.852      25362.865      70           
   2624000  -7830.3497      114.20683     -7944.5566      0.61640401     226.60746      306.9422       300.34045      314.10797      333.05288      40300.211      25106.419      76           
   2625000  -7830.8076      112.47157     -7943.2791      0.61640401     223.16438      282.90687      304.26133      298.8856       324.17992      40506.67       25235.04       70           
   2626000  -7827.8093      111.80572     -7939.6151      0.61640401     221.84322      253.41501      297.54809      305.96484      322.72831      40645.9        25321.778      65           
   2627000  -7828.4578      112.04144     -7940.4992      0.61640401     222.31093      249.20645      298.90692      307.47266      314.29898      40477.115      25216.628      57           
   2628000  -7827.2238      111.80144     -7939.0252      0.61640401     221.83472      301.33969      298.87291      303.17395      313.0921       40837.662      25441.243      60           
   2629000  -7830.943       112.74303     -7943.6861      0.61640401     223.70302      282.09667      306.89097      299.84183      312.92841      40283.047      25095.726      75           
   2630000  -7826.3818      113.42584     -7939.8076      0.61640401     225.05783      265.78864      302.07308      313.584        311.62142      40512.148      25238.453      74           
   2631000  -7829.7376      111.04704     -7940.7847      0.61640401     220.33786      293.83974      295.85864      301.66663      316.83889      40228.275      25061.604      68           
   2632000  -7832.2969      110.54976     -7942.8467      0.61640401     219.35115      250.82271      303.10379      287.5607       326.45711      40682.697      25344.702      66           
   2633000  -7827.6111      113.50443     -7941.1156      0.61640401     225.21377      310.99238      297.48322      313.63241      329.39445      40332.545      25126.563      70           
   2634000  -7830.6977      111.22407     -7941.9218      0.61640401     220.68912      318.01225      299.11975      293.87078      328.7216       40794.449      25414.322      62           
   2635000  -7831.4435      111.11327     -7942.5568      0.61640401     220.46926      239.62119      293.92274      304.56241      330.14109      40526.203      25247.209      56           
   2636000  -7829.996       110.26234     -7940.2583      0.61640401     218.78087      279.67102      300.03788      288.45613      323.93173      40392.263      25163.766      60           
   2637000  -7829.6077      113.73466     -7943.3424      0.61640401     225.67058      285.64446      307.78935      304.33346      316.96773      40551.14       25262.744      59           
   2638000  -7823.8622      113.51102     -7937.3732      0.61640401     225.22685      330.47232      306.80144      302.22971      314.41196      40357.83       25142.315      58           
   2639000  -7824.5212      114.80177     -7939.323       0.61640401     227.78793      275.00629      313.17819      305.60174      314.24154      40740.942      25380.988      59           
   2640000  -7828.9089      113.38384     -7942.2928      0.61640401     224.97449      291.24754      304.61398      305.88136      317.67865      40350.796      25137.933      55           
   2641000  -7833.497       109.82008     -7943.3171      0.61640401     217.90333      270.32836      296.26621      290.51517      325.78056      40724.11       25370.502      54           
   2642000  -7826.759       113.00396     -7939.763       0.61640401     224.22075      327.56863      295.47718      311.38689      329.73338      40320.751      25119.215      68           
   2643000  -7828.9743      111.80256     -7940.7768      0.61640401     221.83694      300.48786      299.43966      298.67622      328.68201      40592.24       25288.349      67           
   2644000  -7824.9805      115.36492     -7940.3454      0.61640401     228.90533      347.77363      303.17338      317.41342      326.35119      40638.354      25317.077      69           
   2645000  -7828.702       112.60361     -7941.3056      0.61640401     223.42637      292.84531      303.8215       299.95169      324.6911       40491.884      25225.829      74           
   2646000  -7833.6186      109.62491     -7943.2435      0.61640401     217.51609      274.76413      298.51612      288.06945      318.05954      40630.705      25312.312      71           
   2647000  -7831.7443      110.2022      -7941.9465      0.61640401     218.66152      291.82155      291.2369       302.68032      315.12257      40393.477      25164.522      71           
   2648000  -7830.5486      111.27144     -7941.82        0.61640401     220.78311      297.32716      288.9735       313.98492      314.68463      40712.117      25363.03       75           
   2649000  -7829.1965      111.90638     -7941.1029      0.61640401     222.04295      292.20084      300.6568       301.57058      314.74488      40321.854      25119.903      67           
   2650000  -7828.1643      112.78044     -7940.9448      0.61640401     223.77724      293.17872      298.78541      311.00064      314.41266      40697.507      25353.929      70           
   2651000  -7827.3638      111.1173      -7938.4811      0.61640401     220.47726      328.82433      298.93484      295.43449      316.89312      40546.329      25259.747      64           
   2652000  -7829.9117      110.74872     -7940.6604      0.61640401     219.74594      311.02596      297.47849      295.8933       316.76597      40488.013      25223.417      66           
   2653000  -7827.8685      113.04732     -7940.9158      0.61640401     224.30677      291.1961       295.22032      318.19638      314.62717      40739.123      25379.855      60           
   2654000  -7832.6152      110.65705     -7943.2722      0.61640401     219.56405      257.47495      298.32968      296.47575      318.9179       40469.947      25212.162      60           
   2655000  -7829.1343      112.22969     -7941.364       0.61640401     222.68444      239.34813      299.82887      307.3052       317.32294      40553.154      25263.999      57           
   2656000  -7830.2701      110.30216     -7940.5723      0.61640401     218.85988      272.95452      291.24689      303.59651      318.20937      40409.247      25174.347      60           
   2657000  -7835.7558      110.20336     -7945.9592      0.61640401     218.66384      308.0687       291.04916      301.78147      315.7338       40717.702      25366.51       57           
   2658000  -7830.8166      111.51516     -7942.3317      0.61640401     221.26668      326.15726      298.18221      301.65228      308.9255       40509.918      25237.063      57           
   2659000  -7829.4194      111.93933     -7941.3587      0.61640401     222.10831      305.98191      298.14185      305.27803      311.80444      40658.367      25329.545      53           
   2660000  -7828.1069      111.63083     -7939.7377      0.61640401     221.4962       331.88191      302.29491      295.94273      309.4013       40438.887      25192.812      59           
   2661000  -7824.5516      113.65924     -7938.2108      0.61640401     225.52093      292.18283      307.56686      303.72032      316.62052      40703.141      25357.438      54           
   2662000  -7827.5322      112.05394     -7939.5861      0.61640401     222.33573      284.11988      308.95089      290.10398      316.0984       40643.898      25320.531      54           
   2663000  -7830.3535      110.94843     -7941.3019      0.61640401     220.1422       265.91738      299.9694       295.09985      321.09726      40507.198      25235.369      59           
   2664000  -7831.3138      111.10499     -7942.4188      0.61640401     220.45284      252.24652      295.38476      304.06843      319.97633      40551.789      25263.149      56           
   2665000  -7831.4663      110.09183     -7941.5581      0.61640401     218.44253      282.5744       301.10673      287.77192      313.43329      40640.261      25318.265      53           
   2666000  -7826.6739      114.14618     -7940.8201      0.61640401     226.48712      279.76068      308.89687      306.83011      312.97232      40641.198      25318.849      51           
   2667000  -7827.7148      111.84652     -7939.5613      0.61640401     221.92416      260.01252      301.54866      301.14456      314.13434      40565.156      25271.476      51           
   2668000  -7824.03        114.69835     -7938.7283      0.61640401     227.58274      231.25116      318.20685      298.88419      316.64696      40465.057      25209.116      55           
   2669000  -7826.4345      111.98107     -7938.4156      0.61640401     222.19114      271.75639      303.86758      297.85865      315.05737      40600.717      25293.63       49           
   2670000  -7831.689       110.69105     -7942.38        0.61640401     219.6315       291.9962       302.41073      288.53596      318.52814      40332.923      25126.798      52           
   2671000  -7828.2032      113.48053     -7941.6837      0.61640401     225.16634      265.08479      306.93322      303.6536       320.30535      40665.033      25333.698      51           
   2672000  -7829.769       110.37958     -7940.1486      0.61640401     219.01349      300.24052      295.94591      295.65816      317.4602       40380.459      25156.413      53           
   2673000  -7827.4727      113.71444     -7941.1871      0.61640401     225.63047      313.55173      310.34808      299.60317      313.69556      40739.457      25380.063      47           
   2674000  -7830.3215      112.02561     -7942.3471      0.61640401     222.27953      308.18925      299.09136      304.64332      310.70572      40381.812      25157.255      50           
   2675000  -7832.4776      111.02182     -7943.4994      0.61640401     220.28781      393.10688      299.12798      293.12048      310.80897      40678.036      25341.798      49           
   2676000  -7830.8136      109.96617     -7940.7798      0.61640401     218.19321      256.09685      296.42633      295.96147      308.99161      40655.952      25328.04       48           
   2677000  -7831.9747      112.06059     -7944.0353      0.61640401     222.34893      359.9285       300.96128      300.25932      308.49443      40384.632      25159.012      49           
   2678000  -7828.5685      113.9415      -7942.51        0.61640401     226.08099      346.47549      304.59611      307.64998      315.33669      40570.403      25274.744      57           
   2679000  -7831.9504      110.34997     -7942.3004      0.61640401     218.95474      295.1225       295.70631      295.65149      319.04848      40471.51       25213.136      49           
   2680000  -7832.7942      108.37369     -7941.1678      0.61640401     215.03344      327.48102      291.8396       285.20652      317.18408      40603.943      25295.64       59           
   2681000  -7830.886       111.7541      -7942.6401      0.61640401     221.74078      289.51247      301.59953      299.03048      314.3884       40296.281      25103.971      60           
   2682000  -7831.5823      110.56195     -7942.1442      0.61640401     219.37535      270.97278      298.31629      297.28948      308.24445      40747.448      25385.041      52           
   2683000  -7831.201       111.84298     -7943.0439      0.61640401     221.91714      316.36057      304.92472      296.32521      301.6385       40380.78       25156.612      62           
   2684000  -7830.8417      108.06098     -7938.9027      0.61640401     214.41295      296.09271      291.81088      289.25584      298.75669      40543.64       25258.072      66           
   2685000  -7832.7849      107.62448     -7940.4094      0.61640401     213.54686      241.15279      291.29548      289.56379      300.94493      40547.408      25260.419      63           
   2686000  -7832.4714      111.05737     -7943.5288      0.61640401     220.35835      325.64558      299.78301      296.78138      304.53866      40581.87       25281.888      64           
   2687000  -7831.0476      110.58055     -7941.6281      0.61640401     219.41225      250.33672      305.11008      288.19211      310.81904      40494.521      25227.471      61           
   2688000  -7830.7755      111.42071     -7942.1962      0.61640401     221.07929      264.45303      295.3998       305.76857      320.47485      40438.826      25192.774      60           
   2689000  -7830.0402      112.05557     -7942.0958      0.61640401     222.33896      337.83961      302.85739      294.51698      323.52447      40758.02       25391.627      58           
   2690000  -7831.6979      109.15594     -7940.8539      0.61640401     216.58556      326.52133      296.45589      282.0041       328.11384      40483.412      25220.551      52           
   2691000  -7831.4588      112.69054     -7944.1493      0.61640401     223.59885      273.61463      308.84023      292.60565      330.08466      40470.95       25212.787      62           
   2692000  -7830.6172      111.84766     -7942.4649      0.61640401     221.92643      339.74606      299.52295      298.93313      319.82034      40545.897      25259.478      55           
   2693000  -7826.8154      113.4511      -7940.2665      0.61640401     225.10794      305.08529      303.8643       308.0503       312.3921       40749.114      25386.079      54           
   2694000  -7830.4174      113.25013     -7943.6675      0.61640401     224.70918      283.35502      305.75875      306.39805      304.79427      40580.513      25281.043      40           
   2695000  -7830.2632      109.40281     -7939.666       0.61640401     217.07539      255.28548      293.80205      297.58703      301.72003      40382.592      25157.741      50           
   2696000  -7831.4401      109.07799     -7940.5181      0.61640401     216.43089      278.47757      303.36863      278.9237       306.42097      40517.856      25242.009      62           
   2697000  -7828.9631      110.58251     -7939.5456      0.61640401     219.41614      327.49079      292.67851      303.24139      307.67849      40639.548      25317.821      51           
   2698000  -7828.92        110.31135     -7939.2313      0.61640401     218.87811      266.92986      298.69626      294.89613      309.87347      40451.892      25200.914      58           
   2699000  -7830.3952      110.72625     -7941.1214      0.61640401     219.70134      315.971        302.08422      291.03202      306.10695      40415.894      25178.488      69           
   2700000  -7828.4533      112.3832      -7940.8365      0.61640401     222.98904      274.45264      309.38605      295.30965      306.83279      40758.509      25391.932      73           
   2701000  -7825.2492      114.36814     -7939.6174      0.61640401     226.92753      330.63689      303.45759      313.27338      315.48596      40479.122      25217.878      69           
   2702000  -7827.0672      113.32967     -7940.3969      0.61640401     224.86702      300.23934      303.95909      306.40424      317.01209      40458.487      25205.023      75           
   2703000  -7830.6215      113.12793     -7943.7495      0.61640401     224.46673      295.6458       302.67686      308.30005      311.54943      40732.338      25375.628      68           
   2704000  -7827.2904      111.71332     -7939.0037      0.61640401     221.65988      258.38431      300.07339      304.57094      309.86065      40639.357      25317.702      73           
   2705000  -7829.233       113.48759     -7942.7206      0.61640401     225.18036      251.26204      303.74289      313.68952      305.79696      40507.521      25235.57       69           
   2706000  -7831.0783      111.30161     -7942.3799      0.61640401     220.84297      278.55329      303.27111      299.07277      292.66477      40508.209      25235.999      65           
   2707000  -7831.16        109.68382     -7940.8439      0.61640401     217.63298      250.75275      299.4427       295.24733      289.62381      40651.732      25325.412      68           
   2708000  -7832.7825      108.35179     -7941.1342      0.61640401     214.98997      288.92454      297.28473      286.1486       288.80383      40460.511      25206.283      64           
   2709000  -7827.9369      111.51065     -7939.4476      0.61640401     221.25775      277.57098      303.08167      301.90973      288.82639      40369.644      25149.675      58           
   2710000  -7829.8855      110.6583      -7940.5438      0.61640401     219.56652      305.57268      302.30576      293.87112      294.04465      40597.306      25291.505      54           
   2711000  -7831.3339      108.89406     -7940.228       0.61640401     216.06595      332.4215       288.85093      297.97373      300.58323      40583.249      25282.748      43           
   2712000  -7831.5462      110.61117     -7942.1574      0.61640401     219.47301      324.64766      295.68855      301.08523      300.08171      40700.53       25355.812      45           
   2713000  -7828.1782      112.04717     -7940.2254      0.61640401     222.3223       292.06539      300.51635      305.9008       300.92623      40316.829      25116.772      47           
   2714000  -7831.3298      111.50334     -7942.8331      0.61640401     221.24323      325.03436      304.67887      293.97546      300.75922      40528.73       25248.783      56           
   2715000  -7827.5384      113.16293     -7940.7013      0.61640401     224.53616      297.24563      309.57757      302.24886      294.17961      40568.977      25273.856      51           
   2716000  -7832.9462      106.89428     -7939.8405      0.61640401     212.098        278.63375      284.84623      293.55512      291.43327      40336.129      25128.796      53           
   2717000  -7831.7721      108.80544     -7940.5775      0.61640401     215.89011      293.96528      291.80439      297.74919      287.65283      40523.072      25245.258      51           
   2718000  -7830.5042      111.89684     -7942.401       0.61640401     222.02401      281.43971      310.05584      293.95442      289.87584      40443.662      25195.787      52           
   2719000  -7831.4637      109.26957     -7940.7333      0.61640401     216.81102      315.35222      299.79561      288.56016      286.61574      40439.173      25192.99       53           
   2720000  -7829.8475      111.25734     -7941.1048      0.61640401     220.75513      279.34737      297.59992      308.06148      288.75137      40548.553      25261.132      52           
   2721000  -7827.5458      110.32552     -7937.8713      0.61640401     218.90623      287.40071      299.77762      297.12195      289.93716      40495.999      25228.392      55           
   2722000  -7831.4419      111.58722     -7943.0291      0.61640401     221.40968      328.80773      299.25017      305.32939      290.19799      40648.432      25323.356      50           
   2723000  -7830.1127      112.16177     -7942.2745      0.61640401     222.54969      280.5653       311.71859      294.6678       285.55383      40397.433      25166.987      58           
   2724000  -7829.828       113.66969     -7943.4977      0.61640401     225.54167      311.78169      306.91488      311.67246      284.85445      40520.461      25243.632      55           
   2725000  -7831.3756      111.22761     -7942.6032      0.61640401     220.69615      319.06284      305.76142      295.10339      283.06753      40460.867      25206.505      51           
   2726000  -7829.9209      108.82385     -7938.7447      0.61640401     215.92664      352.46658      293.42369      293.01721      282.35298      40606.299      25297.107      66           
   2727000  -7829.8846      112.92908     -7942.8137      0.61640401     224.07217      284.91658      313.29211      297.49223      286.15623      40414.524      25177.634      49           
   2728000  -7829.9275      110.60247     -7940.53        0.61640401     219.45574      274.32958      299.22096      302.22376      284.21366      40536.727      25253.765      60           
   2729000  -7829.8963      112.0092      -7941.9055      0.61640401     222.24695      292.55869      308.5222       298.60876      281.38465      40450.566      25200.088      46           
   2730000  -7829.7976      113.08514     -7942.8827      0.61640401     224.38182      269.61356      299.41863      322.50108      276.28148      40704.841      25358.497      44           
   2731000  -7826.5875      111.49913     -7938.0866      0.61640401     221.23489      265.90243      307.40415      298.60493      278.15548      40539.692      25255.612      54           
   2732000  -7829.3707      110.41437     -7939.7851      0.61640401     219.08252      306.68853      297.08148      303.49991      278.41526      40420.733      25181.502      59           
   2733000  -7828.0364      112.03807     -7940.0744      0.61640401     222.30425      311.43793      309.04855      296.99736      280.78567      40797.898      25416.471      63           
   2734000  -7826.2745      109.60746     -7935.882       0.61640401     217.48147      299.77231      292.06025      304.05709      283.00069      40183.551      25033.742      66           
   2735000  -7828.573       110.79025     -7939.3633      0.61640401     219.82833      298.07599      301.05107      297.60406      291.80407      40736.761      25378.383      63           
   2736000  -7829.8128      111.20791     -7941.0207      0.61640401     220.65706      286.74259      297.39119      305.16486      298.70692      40528.121      25248.404      57           
   2737000  -7834.3264      107.95716     -7942.2836      0.61640401     214.20696      311.40125      289.92383      290.40078      299.22305      40605.77       25296.778      54           
   2738000  -7830.6874      111.83028     -7942.5177      0.61640401     221.89195      279.67052      301.78522      302.17716      305.50038      40583.222      25282.731      64           
   2739000  -7828.6222      113.30051     -7941.9227      0.61640401     224.80916      261.28357      310.00559      302.26004      303.82276      40539.272      25255.35       57           
   2740000  -7837.8251      108.61916     -7946.4443      0.61640401     215.52049      324.07327      289.07166      296.45787      296.77961      40532.797      25251.317      58           
   2741000  -7835.5275      108.55483     -7944.0824      0.61640401     215.39284      312.29623      286.15966      302.08708      292.68692      40339.663      25130.997      53           
   2742000  -7833.2747      108.99474     -7942.2694      0.61640401     216.2657       311.9971       289.64041      301.38409      288.35702      40599.114      25292.631      49           
   2743000  -7830.8978      112.34788     -7943.2456      0.61640401     222.91895      261.92524      294.13689      322.12292      288.83125      40513.179      25239.095      49           
   2744000  -7831.6097      110.8518      -7942.4615      0.61640401     219.95045      267.82615      295.70293      309.46647      284.96339      40779.119      25404.771      62           
   2745000  -7830.0179      111.60626     -7941.6242      0.61640401     221.44745      252.48208      304.70555      298.84493      299.16253      40433.83       25189.662      54           
   2746000  -7832.3656      109.54228     -7941.9079      0.61640401     217.35212      279.19299      298.33808      291.26682      300.27837      40335.522      25128.418      58           
   2747000  -7828.2265      112.68123     -7940.9077      0.61640401     223.58038      256.08277      309.59246      300.59752      294.86779      40731.013      25374.802      55           
   2748000  -7830.9326      109.83066     -7940.7633      0.61640401     217.92433      260.98306      297.33733      297.5499       292.62296      40400.109      25168.654      50           
   2749000  -7827.0216      111.93216     -7938.9538      0.61640401     222.09409      275.90972      305.16761      300.13914      296.14713      40732.792      25375.911      52           
   2750000  -7827.6935      113.73511     -7941.4286      0.61640401     225.67148      276.49576      310.3018       305.76196      296.84351      40371.895      25151.077      52           
   2751000  -7826.4124      113.26487     -7939.6772      0.61640401     224.73844      303.55514      303.24201      310.94619      298.84054      40708.829      25360.982      61           
   2752000  -7829.3203      112.14216     -7941.4624      0.61640401     222.51077      279.03494      306.05859      299.99243      298.34996      40371.219      25150.656      67           
   2753000  -7834.261       109.97181     -7944.2328      0.61640401     218.2044       264.21214      293.88142      301.34588      304.28458      40652.886      25326.13       66           
   2754000  -7831.3041      108.28419     -7939.5883      0.61640401     214.85585      257.25213      294.19086      290.9378       294.59932      40641.503      25319.039      68           
   2755000  -7831.2652      112.05861     -7943.3239      0.61640401     222.34499      282.11775      304.51459      303.97401      287.48841      40463.451      25208.115      67           
   2756000  -7831.3973      111.3833      -7942.7806      0.61640401     221.00506      307.2722       306.19317      296.03035      281.67953      40445.764      25197.097      71           
   2757000  -7830.0895      111.29208     -7941.3816      0.61640401     220.82406      290.98924      301.14624      303.01169      285.74079      40471.19       25212.937      69           
   2758000  -7829.0935      113.18728     -7942.2807      0.61640401     224.58448      263.86421      309.28866      307.02484      284.51995      40896.171      25477.693      66           
   2759000  -7829.9281      108.78847     -7938.7166      0.61640401     215.85642      277.69283      289.32207      303.69649      281.40748      40213.196      25052.21       68           
   2760000  -7832.1742      109.48127     -7941.6555      0.61640401     217.23108      279.83758      299.86737      291.21401      288.87957      40879.663      25467.409      66           
   2761000  -7832.352       109.0603      -7941.4124      0.61640401     216.3958       275.54149      292.89143      298.64129      290.07178      40313.109      25114.455      73           
   2762000  -7834.4432      108.58326     -7943.0265      0.61640401     215.44926      311.03331      295.48605      289.59716      285.59435      40517.862      25242.012      78           
   2763000  -7835.3435      110.34633     -7945.6899      0.61640401     218.94752      255.73422      301.37295      296.87842      291.30084      40457.358      25204.319      76           
   2764000  -7832.9073      110.26132     -7943.1686      0.61640401     218.77885      288.91982      295.03001      305.1866       282.63368      40630.922      25312.447      64           
   2765000  -7829.7969      112.97753     -7942.7744      0.61640401     224.16831      293.1796       305.19431      311.00503      279.04727      40770.301      25399.278      71           
   2766000  -7831.6955      110.68005     -7942.3756      0.61640401     219.60968      282.48811      306.44782      293.4694       274.96499      40438.856      25192.793      62           
   2767000  -7830.2799      112.13487     -7942.4148      0.61640401     222.49632      313.89997      303.45921      308.56847      268.07732      40578.04       25279.502      68           
   2768000  -7829.4224      110.00969     -7939.4321      0.61640401     218.27956      318.08005      295.27523      304.40324      267.95128      40384.249      25158.773      74           
   2769000  -7830.0907      110.9612      -7941.0519      0.61640401     220.16753      301.2159       296.73063      310.09634      270.84519      40755.97       25390.35       64           
   2770000  -7829.7036      112.2801      -7941.9837      0.61640401     222.78447      295.4161       311.20101      297.75419      275.84992      40431.28       25188.073      59           
   2771000  -7832.2139      110.73221     -7942.9461      0.61640401     219.71317      326.78495      301.83898      296.65189      282.46053      40698.646      25354.638      59           
   2772000  -7831.2794      111.76645     -7943.0458      0.61640401     221.76529      354.49634      302.40695      302.13932      280.13877      40659.518      25330.262      64           
   2773000  -7830.9074      111.97065     -7942.878       0.61640401     222.17047      284.27506      299.59401      311.73188      282.19668      40530.03       25249.593      66           
   2774000  -7832.3434      110.72212     -7943.0655      0.61640401     219.69315      277.08219      303.04183      296.78212      287.23149      40649.747      25324.175      82           
   2775000  -7831.155       109.84047     -7940.9954      0.61640401     217.94379      286.15904      295.23248      300.6533       288.73957      40384.018      25158.63       82           
   2776000  -7827.8067      111.71234     -7939.5191      0.61640401     221.65793      313.20527      296.81934      311.84207      282.7611       40791.652      25412.58       73           
   2777000  -7830.9131      109.00849     -7939.9216      0.61640401     216.29299      295.26735      295.66131      295.20887      280.14436      40365.708      25147.223      55           
   2778000  -7831.2595      111.85588     -7943.1154      0.61640401     221.94274      248.49701      307.03492      303.12525      277.85534      40786.534      25409.391      64           
   2779000  -7828.3971      112.32471     -7940.7219      0.61640401     222.87298      285.88071      302.41045      311.0673       278.17543      40386.698      25160.3        58           
   2780000  -7832.3973      109.06283     -7941.4602      0.61640401     216.4008       321.9384       293.15955      296.92656      283.87763      40556.667      25266.187      59           
   2781000  -7832.4827      109.33879     -7941.8215      0.61640401     216.94837      290.94408      285.44734      311.51936      286.87233      40446.879      25197.791      66           
   2782000  -7835.1062      109.42417     -7944.5304      0.61640401     217.11777      296.10337      291.9304       303.13245      283.13827      40561.217      25269.022      57           
   2783000  -7832.472       110.55458     -7943.0265      0.61640401     219.36072      297.62585      292.98365      310.21326      282.14788      40478.462      25217.467      61           
   2784000  -7832.0805      111.4663      -7943.5468      0.61640401     221.16974      281.42983      303.8953       301.92157      281.88386      40507.633      25235.64       68           
   2785000  -7837.419       108.22918     -7945.6482      0.61640401     214.74669      273.57911      294.15454      292.34269      282.2601       40642.705      25319.788      62           
   2786000  -7834.3477      109.6716      -7944.0193      0.61640401     217.60873      265.0533       300.59425      294.14553      282.89444      40414.984      25177.921      70           
   2787000  -7831.5359      110.93177     -7942.4677      0.61640401     220.10914      300.18767      293.09446      313.02689      280.84106      40648.801      25323.585      63           
   2788000  -7831.6056      109.97453     -7941.5801      0.61640401     218.20979      193.68396      298.58069      302.55911      285.95263      40223.391      25058.561      60           
   2789000  -7834.0158      109.12582     -7943.1416      0.61640401     216.5258       256.30834      300.93824      289.6343       283.88166      40809.545      25423.727      62           
   2790000  -7833.3659      109.76965     -7943.1355      0.61640401     217.80328      311.85048      299.88326      293.10004      283.34998      40443.403      25195.626      53           
   2791000  -7832.2735      111.81447     -7944.0879      0.61640401     221.86058      330.69763      310.94372      289.29288      290.34202      40785.55       25408.778      52           
   2792000  -7829.0682      111.26501     -7940.3333      0.61640401     220.77035      293.38182      304.21936      296.56827      292.50887      40386.165      25159.967      55           
   2793000  -7827.0537      114.12701     -7941.1807      0.61640401     226.44909      318.09493      311.54548      306.57423      289.40673      40637.868      25316.775      54           
   2794000  -7828.18        111.57711     -7939.7571      0.61640401     221.38961      293.30914      305.93665      297.41448      288.02648      40734.347      25376.879      58           
   2795000  -7826.7294      112.81661     -7939.546       0.61640401     223.84901      357.90151      306.72494      301.24772      288.57886      40391.398      25163.228      68           
   2796000  -7829.4419      112.25908     -7941.701       0.61640401     222.74277      296.31939      306.93335      301.2013       286.74242      40765.56       25396.325      56           
   2797000  -7827.7975      111.88947     -7939.687       0.61640401     222.00939      310.78722      303.89436      302.2331       286.59348      40467.273      25210.496      59           
   2798000  -7824.0276      114.5817      -7938.6093      0.61640401     227.35127      303.79137      317.42795      302.25747      288.7205       40592.335      25288.408      55           
   2799000  -7831.8914      109.37543     -7941.2668      0.61640401     217.02106      349.32593      297.26301      291.30484      283.65726      40435.805      25190.892      66           
   2800000  -7828.5571      111.30229     -7939.8594      0.61640401     220.84431      330.44679      297.2403       303.68471      298.96467      40685.781      25346.623      56           
   2801000  -7829.6699      111.83168     -7941.5016      0.61640401     221.89472      318.06986      307.44314      294.50435      292.81756      40509.141      25236.58       60           
   2802000  -7829.3278      112.04723     -7941.375       0.61640401     222.32241      285.56837      301.99017      304.81438      298.37748      40657.175      25328.803      61           
   2803000  -7829.7203      111.09259     -7940.8129      0.61640401     220.42823      360.10074      299.2779       298.38198      293.61985      40609.698      25299.225      62           
   2804000  -7833.6728      107.83389     -7941.5067      0.61640401     213.96237      305.01793      292.56379      287.02246      294.1473       40457.451      25204.377      63           
   2805000  -7830.9525      110.39603     -7941.3485      0.61640401     219.04613      314.38483      291.83532      306.8209       294.61603      40746.666      25384.554      58           
   2806000  -7831.9003      111.79383     -7943.6941      0.61640401     221.81962      288.58236      299.93034      307.59634      290.97644      40482.678      25220.093      63           
   2807000  -7828.4059      114.80097     -7943.2069      0.61640401     227.78634      337.31904      310.62051      310.00371      296.94746      40486.636      25222.559      62           
   2808000  -7831.4079      107.87814     -7939.286       0.61640401     214.05017      291.99767      291.1734       289.10626      298.62864      40509.672      25236.911      51           
   2809000  -7830.7114      110.41747     -7941.1289      0.61640401     219.08868      248.81886      293.33937      308.28926      294.9199       40616.911      25303.718      58           
   2810000  -7834.4646      111.08158     -7945.5462      0.61640401     220.40639      291.23682      296.0712       307.77568      291.15557      40618.495      25304.705      66           
   2811000  -7833.7719      109.44074     -7943.2127      0.61640401     217.15065      295.94807      293.25021      299.46888      290.65658      40455.36       25203.074      63           
   2812000  -7831.0332      109.7567      -7940.7899      0.61640401     217.77759      315.02649      298.86623      293.0288       287.67457      40708.266      25360.631      62           
   2813000  -7825.8639      114.93994     -7940.8038      0.61640401     228.06208      308.29078      317.81981      305.03424      284.12627      40327.549      25123.45       58           
   2814000  -7829.17        110.89909     -7940.069       0.61640401     220.04429      328.27672      305.04738      292.39703      285.05692      40624.492      25308.441      58           
   2815000  -7831.9913      109.16589     -7941.1572      0.61640401     216.6053       257.51711      292.75919      301.35335      287.36524      40503.699      25233.189      67           
   2816000  -7833.711       107.44782     -7941.1588      0.61640401     213.19633      256.24164      291.16234      288.26848      298.15776      40476.887      25216.486      65           
   2817000  -7835.3356      109.22188     -7944.5575      0.61640401     216.71639      324.67355      294.25503      292.19793      300.49356      40616.565      25303.503      65           
   2818000  -7833.1164      111.85823     -7944.9746      0.61640401     221.94741      298.86444      295.91356      311.32746      299.80591      40469.1        25211.634      60           
   2819000  -7830.8697      110.81275     -7941.6825      0.61640401     219.87298      286.87547      298.61569      300.95739      296.01145      40574.684      25277.412      51           
   2820000  -7829.6827      111.63511     -7941.3178      0.61640401     221.50469      258.57423      298.13142      311.51222      287.30012      40567.187      25272.741      53           
   2821000  -7832.1309      109.70292     -7941.8338      0.61640401     217.67087      356.65006      296.80302      294.39189      283.891        40504.704      25233.815      59           
   2822000  -7827.3533      113.62597     -7940.9793      0.61640401     225.45492      294.69481      305.48932      314.00359      285.45656      40367.939      25148.613      56           
   2823000  -7828.8026      110.72892     -7939.5315      0.61640401     219.70664      251.87033      301.60837      298.80515      292.3          40650.714      25324.777      59           
   2824000  -7828.9681      112.50398     -7941.472       0.61640401     223.2287       288.53761      302.72586      306.29014      301.76556      40443.188      25195.491      70           
   2825000  -7828.3745      113.08338     -7941.4579      0.61640401     224.37832      276.61321      307.02557      303.07473      309.59487      40490.993      25225.273      65           
   2826000  -7829.591       113.26147     -7942.8525      0.61640401     224.7317       279.9586       306.39054      303.75771      314.92582      40563.281      25270.308      61           
   2827000  -7826.0419      115.56301     -7941.6049      0.61640401     229.29837      295.86911      314.58285      309.2767       309.42016      40437.127      25191.716      63           
   2828000  -7829.1003      113.25269     -7942.353       0.61640401     224.71426      271.27147      301.24588      312.57113      311.42802      40694.272      25351.914      57           
   2829000  -7827.4134      111.71784     -7939.1312      0.61640401     221.66884      297.60093      297.50614      305.72207      309.18798      40562.21       25269.641      57           
   2830000  -7834.2639      108.20385     -7942.4677      0.61640401     214.69643      272.52897      289.87917      292.15945      308.82648      40478.702      25217.616      59           
   2831000  -7826.3474      113.9774      -7940.3248      0.61640401     226.15223      316.64518      309.80206      303.81594      306.75158      40701.889      25356.658      66           
   2832000  -7829.723       112.89304     -7942.616       0.61640401     224.00067      322.70734      304.96141      302.05753      308.69956      40514.055      25239.641      66           
   2833000  -7825.5397      111.70792     -7937.2476      0.61640401     221.64916      292.67839      293.33529      312.80658      306.67166      40513.035      25239.005      61           
   2834000  -7826.938       112.60037     -7939.5384      0.61640401     223.41995      330.59937      301.46881      302.9255       315.09562      40492.599      25226.274      69           
   2835000  -7831.0782      110.25506     -7941.3333      0.61640401     218.76643      287.26693      302.18229      285.86949      319.98582      40603.391      25295.296      69           
   2836000  -7830.2725      110.43249     -7940.705       0.61640401     219.11847      270.03252      298.59304      292.35387      324.09553      40346.418      25135.206      60           
   2837000  -7827.931       114.03997     -7941.971       0.61640401     226.27638      281.8915       311.6628       299.91973      322.04143      40560.578      25268.624      60           
   2838000  -7832.2958      110.04639     -7942.3422      0.61640401     218.35237      325.43165      292.50443      296.51301      318.3479       40576.61       25278.612      73           
   2839000  -7831.7286      109.36198     -7941.0905      0.61640401     216.99439      297.55441      295.32949      289.88205      315.44217      40541.546      25256.767      75           
   2840000  -7830.2138      110.11687     -7940.3306      0.61640401     218.49223      320.00236      292.35921      299.64319      309.93853      40419.532      25180.754      74           
   2841000  -7832.2434      110.05232     -7942.2957      0.61640401     218.36415      294.39256      298.49917      290.55739      314.97175      40467.549      25210.668      66           
   2842000  -7830.4401      111.9254      -7942.3655      0.61640401     222.08069      288.27305      295.47484      310.19505      312.6865       40732.034      25375.438      70           
   2843000  -7831.5903      111.06067     -7942.651       0.61640401     220.36489      271.11796      300.75556      294.08024      323.70623      40464.435      25208.729      61           
   2844000  -7830.2339      110.92481     -7941.1587      0.61640401     220.09532      304.08066      293.9318       301.4433       323.01686      40719.109      25367.386      66           
   2845000  -7830.5929      112.1755      -7942.7684      0.61640401     222.57692      341.64684      298.32731      302.32549      321.00414      40147.546      25011.311      68           
   2846000  -7829.3956      111.2592      -7940.6548      0.61640401     220.75882      313.17019      297.41873      298.44458      321.9419       40590.934      25287.535      77           
   2847000  -7829.8635      110.42176     -7940.2852      0.61640401     219.09717      280.7373       294.85305      298.81152      320.04311      40371.018      25150.531      77           
   2848000  -7833.5635      109.93845     -7943.502       0.61640401     218.1382       251.16626      301.16032      287.38708      321.00612      40557.66       25266.806      72           
   2849000  -7828.2953      111.36837     -7939.6637      0.61640401     220.97543      296.22428      301.91113      294.1968       320.0428       40421.919      25182.241      68           
   2850000  -7829.5342      109.90506     -7939.4392      0.61640401     218.07195      303.06325      290.71051      299.42543      320.37804      40560.922      25268.838      71           
   2851000  -7826.984       113.70627     -7940.6903      0.61640401     225.61426      254.29497      306.55756      307.03544      322.72663      40315.082      25115.684      69           
   2852000  -7828.3289      113.84861     -7942.1775      0.61640401     225.89668      323.95011      301.8083       309.27468      327.98151      40658.3        25329.503      76           
   2853000  -7832.3424      111.39277     -7943.7352      0.61640401     221.02384      267.81889      295.59945      303.4292       329.86913      40489.816      25224.54       70           
   2854000  -7827.911       111.00985     -7938.9209      0.61640401     220.26405      325.01743      291.72224      304.47628      322.04846      40486.339      25222.374      59           
   2855000  -7831.111       109.75423     -7940.8652      0.61640401     217.77267      333.57928      289.84514      301.02263      305.39817      40519.265      25242.886      67           
   2856000  -7830.8486      110.36301     -7941.2116      0.61640401     218.98061      320.14643      289.09385      306.15374      311.46431      40587.839      25285.607      69           
   2857000  -7827.3033      113.16066     -7940.4639      0.61640401     224.53166      284.81051      307.60776      301.71758      311.4649       40713.2        25363.705      61           
   2858000  -7834.519       109.09847     -7943.6175      0.61640401     216.47154      292.56137      298.72609      284.59404      308.31459      40312.245      25113.916      55           
   2859000  -7832.3144      110.19832     -7942.5127      0.61640401     218.65385      263.05905      298.01936      295.79266      305.82896      40592.902      25288.761      47           
   2860000  -7830.4889      112.19135     -7942.6803      0.61640401     222.60837      296.21531      304.72448      299.70845      304.48105      40571.14       25275.204      57           
   2861000  -7832.4519      110.91204     -7943.364       0.61640401     220.06999      300.54869      302.54953      293.19172      303.95059      40642.001      25319.349      48           
   2862000  -7828.9519      111.35153     -7940.3034      0.61640401     220.94203      238.24195      299.07417      305.05822      302.06902      40656.857      25328.604      49           
   2863000  -7827.1086      112.37702     -7939.4856      0.61640401     222.97677      253.91435      305.58408      300.83034      306.86319      40372.195      25151.264      43           
   2864000  -7826.2685      111.83481     -7938.1033      0.61640401     221.90094      361.17527      295.17256      307.48351      305.46914      40550.416      25262.293      56           
   2865000  -7824.858       113.06237     -7937.9203      0.61640401     224.33663      289.9954       312.19374      294.51787      307.57376      40505.706      25234.44       46           
   2866000  -7827.3102      111.48572     -7938.7959      0.61640401     221.20828      281.99811      305.41465      293.56412      305.27606      40615.06       25302.565      40           
   2867000  -7827.6179      111.86374     -7939.4817      0.61640401     221.95834      330.66375      301.53334      300.84343      303.49482      40320.714      25119.193      39           
   2868000  -7832.1176      109.3765      -7941.4941      0.61640401     217.02319      342.87913      291.39693      297.24132      300.5745       40739.423      25380.042      46           
   2869000  -7826.965       113.12972     -7940.0947      0.61640401     224.47028      304.65464      304.86249      306.15618      304.27902      40514.637      25240.003      46           
   2870000  -7830.1613      109.98357     -7940.1449      0.61640401     218.22774      376.00117      298.24327      293.7661       287.75633      40459.313      25205.538      42           
   2871000  -7825.5326      114.67873     -7940.2114      0.61640401     227.54379      316.50685      309.53205      313.02733      293.98026      40477.918      25217.128      43           
   2872000  -7827.2601      112.30054     -7939.5607      0.61640401     222.82502      329.66003      297.84646      310.03149      300.873        40539.123      25255.258      50           
   2873000  -7828.3498      111.41489     -7939.7647      0.61640401     221.06773      394.16346      298.45729      299.21278      302.57432      40563.826      25270.647      47           
   2874000  -7826.7407      115.78882     -7942.5296      0.61640401     229.74643      383.5865       313.04496      310.8062       303.49586      40281.272      25094.62       45           
   2875000  -7830.354       112.12334     -7942.4774      0.61640401     222.47343      299.53536      299.29038      307.84912      301.39656      40650.771      25324.813      43           
   2876000  -7825.4479      112.72691     -7938.1749      0.61640401     223.67103      377.83805      295.41829      315.61331      298.50667      40566.949      25272.593      44           
   2877000  -7829.5181      110.97113     -7940.4893      0.61640401     220.18724      290.7653       296.79383      304.30805      297.47418      40381.156      25156.847      51           
   2878000  -7829.2979      110.93268     -7940.2306      0.61640401     220.11093      241.93619      300.92774      300.42389      295.99989      40565.128      25271.459      47           
   2879000  -7831.1967      110.72936     -7941.9261      0.61640401     219.70751      312.60219      298.4123       299.69867      295.33855      40448.31       25198.683      43           
   2880000  -7826.8823      111.74663     -7938.629       0.61640401     221.72598      253.70464      302.12425      303.19425      299.82764      40584.417      25283.475      46           
   2881000  -7823.1103      115.10469     -7938.2149      0.61640401     228.38897      267.30871      317.84761      303.70588      302.62384      40576.9        25278.792      45           
   2882000  -7829.604       108.96912     -7938.5731      0.61640401     216.21488      350.87554      296.25423      285.87404      302.98921      40571.835      25275.637      48           
   2883000  -7827.9201      111.48231     -7939.4024      0.61640401     221.2015       335.35842      308.00389      290.1091       294.38554      40450.707      25200.176      51           
   2884000  -7830.8815      110.69027     -7941.5718      0.61640401     219.62996      363.8779       298.9408       294.14613      303.79183      40648.091      25323.143      46           
   2885000  -7827.7469      114.28364     -7942.0305      0.61640401     226.75987      314.08826      310.38854      306.79638      301.72271      40549.147      25261.503      50           
   2886000  -7829.3245      112.33159     -7941.6561      0.61640401     222.88664      295.21219      306.20161      299.69451      299.9092       40503.998      25233.375      46           
   2887000  -7826.6939      112.88249     -7939.5764      0.61640401     223.97972      287.39914      303.07787      309.59913      296.94335      40583.16       25282.692      46           
   2888000  -7828.4513      112.03971     -7940.491       0.61640401     222.30749      291.22248      304.76403      301.08017      294.97718      40575.706      25278.049      49           
   2889000  -7829.4577      112.3781      -7941.8358      0.61640401     222.97892      301.61425      306.94884      299.69293      295.49506      40549.031      25261.431      41           
   2890000  -7830.5858      111.01676     -7941.6026      0.61640401     220.27778      299.30951      299.19638      299.31822      302.81123      40646.121      25321.916      50           
   2891000  -7833.8499      109.71315     -7943.5631      0.61640401     217.69118      306.99829      293.24981      298.1573       301.99344      40689.068      25348.671      56           
   2892000  -7828.2391      112.53353     -7940.7726      0.61640401     223.28732      321.73896      305.56411      302.37725      294.17202      40525.317      25246.657      48           
   2893000  -7830.9189      110.60167     -7941.5206      0.61640401     219.45415      330.42731      303.64888      291.19714      290.17958      40474.611      25215.068      51           
   2894000  -7827.703       111.50037     -7939.2033      0.61640401     221.23735      329.84581      303.18335      298.17582      292.11182      40550.429      25262.301      52           
   2895000  -7827.1146      111.0526      -7938.1672      0.61640401     220.34889      299.69729      299.81445      302.06372      289.05166      40513.601      25239.358      54           
   2896000  -7831.2374      110.29691     -7941.5343      0.61640401     218.84945      315.91762      300.47127      294.45742      289.78173      40461.53       25206.918      51           
   2897000  -7831.5822      110.22742     -7941.8096      0.61640401     218.71158      305.81679      288.75682      312.24705      287.91615      40486.456      25222.447      57           
   2898000  -7831.4832      109.14135     -7940.6245      0.61640401     216.55661      346.03565      292.4313       294.60894      295.03854      40556.919      25266.344      58           
   2899000  -7833.2373      108.58872     -7941.826       0.61640401     215.46009      351.77923      298.62185      280.43898      297.85899      40466.44       25209.978      54           
   2900000  -7834.0022      109.02596     -7943.0281      0.61640401     216.32765      312.85665      294.77662      291.52798      298.12137      40661.874      25331.73       46           
   2901000  -7830.7354      110.4326      -7941.168       0.61640401     219.11869      346.51258      298.7934       296.0338       291.11977      40315.504      25115.947      53           
   2902000  -7830.0295      110.01947     -7940.049       0.61640401     218.29897      342.17816      300.63157      290.45321      290.9461       40518.823      25242.611      53           
   2903000  -7830.5718      110.99192     -7941.5638      0.61640401     220.22849      312.43278      291.46374      312.41142      293.15876      40587.085      25285.138      52           
   2904000  -7831.3136      109.15279     -7940.4664      0.61640401     216.57932      262.02945      296.62836      293.27631      294.49302      40403.917      25171.026      59           
   2905000  -7826.5459      114.92185     -7941.4678      0.61640401     228.02618      256.82198      310.27465      315.6628       297.18978      40702.59       25357.095      51           
   2906000  -7829.9882      109.77473     -7939.7629      0.61640401     217.81335      311.37403      289.37826      305.35044      297.23218      40549.544      25261.75       57           
   2907000  -7833.1797      109.74437     -7942.9241      0.61640401     217.75311      348.94576      291.81974      299.61083      296.80352      40499.919      25230.834      56           
   2908000  -7829.3598      113.12108     -7942.4809      0.61640401     224.45314      344.83613      303.8423       306.85967      295.53475      40514.668      25240.023      72           
   2909000  -7828.5346      113.04796     -7941.5826      0.61640401     224.30804      357.93495      305.88682      302.64649      295.27848      40712.074      25363.004      68           
   2910000  -7832.5544      109.24515     -7941.7996      0.61640401     216.76258      373.55935      291.62545      294.12233      295.13954      40300.83       25106.805      70           
   2911000  -7832.3765      111.61807     -7943.9945      0.61640401     221.47088      313.93012      302.23045      300.04917      296.11233      40451.105      25200.424      64           
   2912000  -7830.9035      110.97091     -7941.8744      0.61640401     220.1868       296.39625      295.44885      305.93229      298.04818      40576.747      25278.697      68           
   2913000  -7829.7919      110.90782     -7940.6997      0.61640401     220.06162      264.34227      297.62798      303.0031       303.51787      40507.56       25235.595      68           
   2914000  -7829.8697      111.95728     -7941.8269      0.61640401     222.14393      289.55216      303.87123      300.94351      299.26971      40883.415      25469.746      68           
   2915000  -7828.3926      110.79115     -7939.1837      0.61640401     219.83011      240.44622      305.92655      293.48276      298.35341      40396.966      25166.696      85           
   2916000  -7828.0025      113.78224     -7941.7847      0.61640401     225.76499      301.30268      306.67983      310.35914      296.42259      40542.717      25257.497      88           
   2917000  -7834.014       108.31124     -7942.3253      0.61640401     214.90953      287.22313      289.54093      295.74515      296.39058      40271.844      25088.747      74           
   2918000  -7828.7639      111.92932     -7940.6932      0.61640401     222.08846      325.7444       303.20725      301.06394      292.3267       40935.044      25501.91       65           
   2919000  -7829.5858      111.15064     -7940.7364      0.61640401     220.54342      311.7242       302.07263      295.00057      304.44572      40474.345      25214.902      57           
   2920000  -7832.6293      108.70882     -7941.3381      0.61640401     215.69839      290.86606      294.36739      289.84916      302.16635      40635.65       25315.393      63           
   2921000  -7833.993       112.48756     -7946.4806      0.61640401     223.1961       332.81837      304.09168      301.0496       302.99147      40585.239      25283.987      64           
   2922000  -7830.0264      111.08528     -7941.1117      0.61640401     220.41373      299.48717      300.20592      299.05723      299.92622      40323.37       25120.847      68           
   2923000  -7829.2065      112.47824     -7941.6847      0.61640401     223.17762      299.65009      301.14124      308.47015      298.51712      40778.62       25404.461      62           
   2924000  -7830.3427      109.15925     -7939.502       0.61640401     216.59213      231.1044       297.1467       293.67154      296.78078      40209.124      25049.673      58           
   2925000  -7828.6727      112.13871     -7940.8114      0.61640401     222.50392      294.239        308.89221      294.45941      299.4424       40698.342      25354.449      63           
   2926000  -7831.9465      110.54209     -7942.4886      0.61640401     219.33594      342.79284      295.71585      300.11447      295.04972      40235.981      25066.405      65           
   2927000  -7830.6769      109.45504     -7940.1319      0.61640401     217.17904      297.19889      299.04232      288.68316      299.86576      40811.411      25424.889      67           
   2928000  -7829.4787      111.52922     -7941.0079      0.61640401     221.29459      348.76885      300.91868      298.32983      299.64876      40440.285      25193.683      65           
   2929000  -7832.2606      108.25666     -7940.5172      0.61640401     214.80121      350.428        293.85287      282.59764      304.26735      40540.678      25256.227      73           
   2930000  -7832.7462      110.58112     -7943.3273      0.61640401     219.41338      304.55792      299.08544      294.08638      310.64541      40542.83       25257.567      64           
   2931000  -7830.5975      109.97854     -7940.5761      0.61640401     218.21776      335.43383      296.83323      292.12299      305.49429      40460.753      25206.434      67           
   2932000  -7827.6785      113.98268     -7941.6612      0.61640401     226.1627       304.4812       310.21691      304.6093       304.36132      40716.601      25365.824      68           
   2933000  -7829.3781      113.24284     -7942.6209      0.61640401     224.69473      330.00842      306.74905      307.95036      283.60427      40168.145      25024.144      54           
   2934000  -7826.8263      112.975       -7939.8013      0.61640401     224.16327      336.2915       306.65515      304.14342      287.96524      40946.185      25508.851      67           
   2935000  -7829.3756      112.58436     -7941.9599      0.61640401     223.38818      360.61747      305.87894      300.55992      289.711        40151.725      25013.915      64           
   2936000  -7827.9003      111.84538     -7939.7457      0.61640401     221.92191      334.62315      309.64772      288.88887      298.30542      40740.122      25380.477      65           
   2937000  -7831.3316      111.44326     -7942.7749      0.61640401     221.12403      348.46576      302.7632       293.29359      306.3123       40219.049      25055.856      67           
   2938000  -7831.9211      110.90667     -7942.8278      0.61640401     220.05934      341.42499      293.89296      301.96857      310.14862      40799.909      25417.724      68           
   2939000  -7830.6597      111.51621     -7942.176       0.61640401     221.26878      305.77516      297.61756      302.48824      313.74746      40261.512      25082.31       72           
   2940000  -7831.5312      111.76321     -7943.2944      0.61640401     221.75887      313.81441      290.23238      314.68951      314.37569      40424.799      25184.036      66           
   2941000  -7833.2849      110.23721     -7943.5221      0.61640401     218.73101      320.45491      298.1925       292.65198      306.5663       40664.005      25333.057      71           
   2942000  -7828.2034      113.16754     -7941.371       0.61640401     224.54531      301.30018      303.99782      309.31084      298.42383      40322.952      25120.586      67           
   2943000  -7828.4873      113.5936      -7942.0809      0.61640401     225.39069      291.58622      309.10862      305.485        298.59193      40713.505      25363.895      64           
   2944000  -7828.0134      114.70218     -7942.7156      0.61640401     227.59032      293.04426      310.14425      310.76239      304.12099      40240.758      25069.381      58           
   2945000  -7831.7217      109.21353     -7940.9352      0.61640401     216.69983      289.79853      292.1954       295.48677      308.45517      40785.185      25408.551      62           
   2946000  -7828.6227      110.29828     -7938.921       0.61640401     218.85218      290.31683      297.9027       295.4555       306.99622      40224.506      25059.256      65           
   2947000  -7831.4242      111.83157     -7943.2558      0.61640401     221.8945       265.80074      299.549        304.56938      313.11977      40591.684      25288.003      64           
   2948000  -7833.5294      110.69251     -7944.2219      0.61640401     219.63439      286.44518      298.33045      296.56322      313.40746      40423.77       25183.395      65           
   2949000  -7831.8631      109.27528     -7941.1384      0.61640401     216.82235      276.05714      292.65865      296.66083      306.45473      40823.321      25432.309      64           
   2950000  -7828.3327      109.43198     -7937.7647      0.61640401     217.13328      319.64995      288.73723      303.23517      296.53732      40771.969      25400.317      66           
   2951000  -7833.3747      107.59248     -7940.9671      0.61640401     213.48337      335.65223      289.17446      289.04553      290.94644      40355.796      25141.048      66           
   2952000  -7829.9564      111.59837     -7941.5548      0.61640401     221.43179      312.75303      301.65891      301.456        293.91428      40797.666      25416.326      59           
   2953000  -7826.784       112.85236     -7939.6364      0.61640401     223.91993      266.04469      305.30185      306.19251      302.23509      40258.764      25080.599      62           
   2954000  -7829.1262      112.22666     -7941.3528      0.61640401     222.67844      311.12309      300.08661      306.74238      301.16638      40710.625      25362.101      71           
   2955000  -7832.3753      111.48704     -7943.8624      0.61640401     221.2109       300.70334      302.17231      296.51258      310.88598      40289.31       25099.628      63           
   2956000  -7833.6623      110.21569     -7943.878       0.61640401     218.68829      265.80746      295.76891      298.92199      310.37431      40824.965      25433.333      67           
   2957000  -7831.5755      111.27616     -7942.8516      0.61640401     220.79247      304.22198      302.96716      294.80892      305.36763      40546.776      25260.025      73           
   2958000  -7831.2996      110.83625     -7942.1358      0.61640401     219.91962      243.24052      302.95605      297.28689      299.06879      40402.651      25170.238      74           
   2959000  -7831.2911      110.25844     -7941.5495      0.61640401     218.77313      261.82175      296.26793      302.50698      294.84463      40533.881      25251.992      73           
   2960000  -7827.6073      109.07249     -7936.6798      0.61640401     216.41998      282.11607      294.70071      295.92532      288.23617      40356.571      25141.53       64           
   2961000  -7829.6363      110.80899     -7940.4453      0.61640401     219.86552      281.08753      303.72745      293.61567      297.73008      40626.665      25309.795      77           
   2962000  -7826.8901      113.9009      -7940.791       0.61640401     226.00044      294.103        306.40569      310.09671      305.21212      40428.881      25186.579      66           
   2963000  -7829.4315      111.71769     -7941.1492      0.61640401     221.66854      300.94192      303.00766      298.1556       305.8581       40770.468      25399.382      67           
   2964000  -7835.0026      109.25476     -7944.2573      0.61640401     216.78164      310.3472       289.0949       299.56397      306.90163      40237.565      25067.391      60           
   2965000  -7831.6662      109.93199     -7941.5982      0.61640401     218.12539      275.2697       296.63709      297.24964      300.6476       40682.571      25344.624      74           
   2966000  -7829.1511      112.74526     -7941.8964      0.61640401     223.70743      286.83394      309.43591      299.56699      295.84225      40609.405      25299.042      69           
   2967000  -7830.348       110.51229     -7940.8603      0.61640401     219.27682      266.29701      299.19947      301.21902      288.43283      40334.893      25128.026      73           
   2968000  -7828.628       111.30695     -7939.9349      0.61640401     220.85357      262.96193      302.67233      302.70073      285.39577      40670.584      25337.156      64           
   2969000  -7829.6761      110.15536     -7939.8315      0.61640401     218.5686       270.61901      300.06781      298.01659      282.90439      40505.969      25234.604      65           
   2970000  -7832.9284      109.57722     -7942.5056      0.61640401     217.42146      289.35281      291.9169       303.92992      286.1036       40659.764      25330.415      70           
   2971000  -7831.4788      109.66487     -7941.1436      0.61640401     217.59538      292.69863      290.04157      305.90205      291.58953      40460.043      25205.992      69           
   2972000  -7830.6399      110.97031     -7941.6102      0.61640401     220.1856       279.89042      303.11153      297.51726      289.65361      40752.327      25388.081      66           
   2973000  -7831.5748      109.59651     -7941.1713      0.61640401     217.45974      297.16277      294.83912      297.97584      291.67625      40278.07       25092.626      59           
   2974000  -7830.4292      112.97118     -7943.4004      0.61640401     224.15571      300.15419      308.19939      304.58703      286.12461      40614.086      25301.959      58           
   2975000  -7832.0395      108.07521     -7940.1147      0.61640401     214.44118      293.14409      295.84121      289.0968       275.71938      40473.953      25214.658      63           
   2976000  -7830.2334      111.63944     -7941.8729      0.61640401     221.51329      325.05528      304.63275      301.93441      271.1875       40449.616      25199.496      63           
   2977000  -7832.8203      110.97578     -7943.796       0.61640401     220.19646      339.21035      303.47208      298.79918      268.35947      40629.645      25311.652      60           
   2978000  -7828.714       111.77458     -7940.4886      0.61640401     221.78142      350.09542      305.29251      299.69173      275.19679      40270.803      25088.098      60           
   2979000  -7830.6101      110.90926     -7941.5193      0.61640401     220.06447      267.8444       304.67718      295.11429      290.21676      40876.244      25465.279      55           
   2980000  -7826.1525      114.72556     -7940.8781      0.61640401     227.63671      281.53198      314.6108       306.53792      298.47881      40326.183      25122.599      66           
   2981000  -7831.1289      112.169       -7943.2979      0.61640401     222.56402      306.23319      308.86705      294.91346      295.47961      40665.6        25334.051      62           
   2982000  -7832.585       109.44106     -7942.0261      0.61640401     217.15129      334.8502       291.30006      300.68779      287.52052      40446.271      25197.412      65           
   2983000  -7829.532       109.57757     -7939.1095      0.61640401     217.42216      296.38033      293.51613      301.62184      284.49877      40708.805      25360.967      53           
   2984000  -7826.7199      111.54733     -7938.2673      0.61640401     221.33052      285.23529      305.17408      301.24326      277.97477      40539.351      25255.4        52           
   2985000  -7830.7773      109.06083     -7939.8382      0.61640401     216.39685      318.27613      290.29832      303.26524      276.15976      40290.429      25100.325      60           
   2986000  -7832.7766      109.33375     -7942.1103      0.61640401     216.93836      293.85219      305.36704      284.35076      275.47412      40844.934      25445.773      58           
   2987000  -7831.0222      110.22996     -7941.2522      0.61640401     218.71662      337.25459      299.249        295.64569      283.58126      40302.893      25108.09       63           
   2988000  -7828.1199      111.01537     -7939.1353      0.61640401     220.27501      355.02895      299.82779      297.78963      292.60686      40794.509      25414.36       58           
   2989000  -7828.8481      111.47455     -7940.3226      0.61640401     221.18611      317.80631      301.87598      296.32869      308.94309      40229.207      25062.185      56           
   2990000  -7831.6973      112.26749     -7943.9648      0.61640401     222.75945      315.0427       303.35702      300.63413      306.95308      40823.92       25432.682      64           
   2991000  -7831.437       111.79676     -7943.2338      0.61640401     221.82545      327.47797      302.49037      299.12873      301.12457      40420.273      25181.216      59           
   2992000  -7827.5609      111.88807     -7939.4489      0.61640401     222.00661      327.82868      293.91317      313.45331      296.65251      40573.674      25276.782      66           
   2993000  -7832.227       109.31197     -7941.539       0.61640401     216.89516      277.53157      287.0291       308.74386      290.90566      40444.45       25196.278      56           
   2994000  -7831.2505      106.69774     -7937.9483      0.61640401     211.70804      308.49454      286.87413      287.84738      289.9796       40521.29       25244.148      56           
   2995000  -7831.73        109.98727     -7941.7172      0.61640401     218.23508      301.66473      299.80316      293.2519       291.84025      40692.58       25350.859      57           
   2996000  -7829.5286      109.84283     -7939.3714      0.61640401     217.94848      318.14174      292.61367      299.35774      302.33699      40383.514      25158.316      58           
   2997000  -7833.4515      110.71328     -7944.1648      0.61640401     219.67561      298.54728      306.01787      285.44076      308.69786      40912.081      25487.605      51           
   2998000  -7827.7542      113.61207     -7941.3663      0.61640401     225.42735      332.49386      302.94605      309.46898      311.27282      40319.981      25118.735      54           
   2999000  -7830.6059      111.11941     -7941.7253      0.61640401     220.48145      326.60522      300.94553      294.92333      307.49706      40657.639      25329.091      54           
   3000000  -7829.6725      112.3219      -7941.9944      0.61640401     222.86741      306.98391      298.93609      307.80398      308.04207      40349.893      25137.37       54           
   3001000  -7825.1313      112.16532     -7937.2966      0.61640401     222.55672      327.00858      304.97682      298.50361      300.58493      40498.704      25230.077      54           
   3002000  -7829.6921      111.47027     -7941.1624      0.61640401     221.17762      385.83082      295.19505      303.3081       307.50252      40518.365      25242.326      51           
   3003000  -7829.75        111.1196      -7940.8696      0.61640401     220.48183      339.83719      299.65427      296.69302      305.59025      40501.323      25231.709      51           
   3004000  -7827.0744      113.18959     -7940.2639      0.61640401     224.58906      311.0016       300.40292      309.66691      317.08884      40812.561      25425.606      44           
   3005000  -7822.8245      115.56705     -7938.3915      0.61640401     229.30639      337.49035      309.26064      311.73655      323.21704      40305.085      25109.455      43           
   3006000  -7827.6721      112.97021     -7940.6423      0.61640401     224.15377      298.31164      306.95762      296.80406      325.93704      40720.96       25368.54       58           
   3007000  -7829.9964      111.04787     -7941.0443      0.61640401     220.3395       329.02346      295.49148      297.81796      326.24356      40474.062      25214.726      47           
   3008000  -7825.5233      113.74295     -7939.2662      0.61640401     225.68704      363.79412      304.50491      303.02146      325.96438      40633.918      25314.314      50           
   3009000  -7828.0019      112.30764     -7940.3096      0.61640401     222.83911      284.59479      300.18401      304.29366      317.48466      40466.659      25210.114      42           
   3010000  -7822.1459      114.11694     -7936.2628      0.61640401     226.42911      287.64718      305.71422      309.91442      316.10469      40363.968      25146.139      43           
   3011000  -7824.3669      114.08336     -7938.4502      0.61640401     226.36248      294.23034      306.5903       308.29673      315.28228      40705.9        25359.157      40           
   3012000  -7829.4198      110.04581     -7939.4656      0.61640401     218.35123      279.00633      299.58458      287.63655      319.82475      40457.445      25204.374      34           
   3013000  -7826.9527      111.89391     -7938.8466      0.61640401     222.01821      294.60474      302.33916      295.91296      324.81302      40645.923      25321.793      52           
   3014000  -7831.0697      112.03658     -7943.1062      0.61640401     222.30128      281.23583      307.15288      289.97502      326.84434      40287.851      25098.719      51           
   3015000  -7825.5273      114.50597     -7940.0333      0.61640401     227.20102      294.9959       303.43212      313.50833      326.30363      40789.41       25411.183      47           
   3016000  -7829.4318      111.77713     -7941.2089      0.61640401     221.78649      309.2902       289.28727      314.54299      321.85827      40324.269      25121.407      49           
   3017000  -7828.3131      112.60739     -7940.9205      0.61640401     223.43388      302.36796      298.26623      307.8505       321.69178      40668.763      25336.021      53           
   3018000  -7828.4237      110.72943     -7939.1531      0.61640401     219.70765      280.73386      300.72237      292.45295      316.03047      40592.718      25288.647      50           
   3019000  -7830.3537      110.41539     -7940.7691      0.61640401     219.08453      282.66176      294.42967      300.56912      310.65818      40528.05       25248.359      42           
   3020000  -7827.6455      112.8484      -7940.4939      0.61640401     223.91208      301.50593      308.29277      296.40742      315.20678      40605.815      25296.806      56           
   3021000  -7826.6713      112.07525     -7938.7466      0.61640401     222.37801      320.46936      304.82072      295.05765      314.0104       40377.714      25154.702      56           
   3022000  -7823.9605      114.91802     -7938.8785      0.61640401     228.01858      302.73604      314.16018      302.91102      316.57638      40781.591      25406.311      61           
   3023000  -7825.826       115.62111     -7941.4471      0.61640401     229.41366      351.5185       314.77572      304.57977      316.41153      40374.199      25152.512      58           
   3024000  -7827.1981      111.77957     -7938.9777      0.61640401     221.79132      341.73903      297.13197      302.37405      316.91535      40670.998      25337.414      56           
   3025000  -7823.7047      114.69822     -7938.4029      0.61640401     227.58247      360.29678      314.63507      299.70345      306.07945      40306.306      25110.216      61           
   3026000  -7830.0715      111.01316     -7941.0846      0.61640401     220.27063      360.66285      294.76091      301.72419      308.98292      40768.917      25398.416      45           
   3027000  -7828.9822      110.76666     -7939.7488      0.61640401     219.78152      345.08067      291.69641      303.79358      313.92141      40404.047      25171.107      48           
   3028000  -7824.923       114.13229     -7939.0553      0.61640401     226.45956      376.46148      301.04605      314.73216      311.41175      40395.45       25165.752      42           
   3029000  -7825.6697      112.48354     -7938.1533      0.61640401     223.18813      330.56087      298.56138      308.31535      308.72108      40624.824      25308.648      49           
   3030000  -7828.3554      111.19714     -7939.5525      0.61640401     220.63569      343.34884      301.28081      292.63482      315.10781      40403.23       25170.598      41           
   3031000  -7828.7374      114.12881     -7942.8662      0.61640401     226.45266      373.15217      309.28653      301.2147       315.73427      40668.552      25335.89       45           
   3032000  -7827.6346      111.98767     -7939.6223      0.61640401     222.20423      305.97358      305.08837      294.46131      314.90022      40052.138      24951.873      46           
   3033000  -7829.324       112.51569     -7941.8397      0.61640401     223.25193      367.90329      310.84216      288.07241      312.59198      40956.137      25515.051      40           
   3034000  -7828.8847      109.57987     -7938.4646      0.61640401     217.42672      307.76848      297.182        288.35082      313.73653      40344.285      25133.876      42           
   3035000  -7827.9847      112.14191     -7940.1266      0.61640401     222.51029      324.86909      296.57147      307.89716      313.44442      40623.718      25307.959      44           
   3036000  -7828.3827      111.65678     -7940.0395      0.61640401     221.54769      263.34698      298.85982      305.55822      304.76635      40552.138      25263.366      42           
   3037000  -7827.3589      112.85059     -7940.2095      0.61640401     223.91643      314.66888      308.45005      300.11107      297.11016      40548.519      25261.112      44           
   3038000  -7827.3369      111.80759     -7939.1444      0.61640401     221.84693      318.31914      296.89175      307.14147      305.29344      40545.988      25259.535      51           
   3039000  -7833.9419      111.03487     -7944.9768      0.61640401     220.31371      305.19363      297.38644      299.58762      311.71744      40307.462      25110.937      44           
   3040000  -7830.2196      113.25644     -7943.476       0.61640401     224.7217       318.6695       304.39203      303.68281      318.23537      40882.97       25469.469      44           
   3041000  -7825.7063      114.36095     -7940.0673      0.61640401     226.91327      338.245        303.74791      313.3371       313.36499      39983.531      24909.132      44           
   3042000  -7832.5904      113.02501     -7945.6154      0.61640401     224.26252      330.08053      310.51179      293.00235      315.47716      40800.823      25418.293      45           
   3043000  -7829.6208      112.62348     -7942.2443      0.61640401     223.4658       424.88882      303.00655      298.34079      309.27115      40088.021      24974.228      48           
   3044000  -7825.3838      114.60339     -7939.9872      0.61640401     227.3943       356.95746      320.1217       292.65977      302.55081      40804.799      25420.77       45           
   3045000  -7828.2056      110.99573     -7939.2013      0.61640401     220.23605      318.041        300.7815       296.79616      299.56033      40367.864      25148.566      46           
   3046000  -7828.6824      110.94893     -7939.6314      0.61640401     220.14319      252.15079      297.77798      303.51202      301.53493      40307.833      25111.168      51           
   3047000  -7827.2836      111.95104     -7939.2346      0.61640401     222.13156      264.59308      299.01479      306.30048      309.72477      40767.972      25397.827      44           
   3048000  -7831.7376      111.50501     -7943.2426      0.61640401     221.24655      304.84859      304.98682      292.13809      310.52989      40226.817      25060.696      46           
   3049000  -7832.0502      108.84291     -7940.8931      0.61640401     215.96445      261.30678      291.69983      292.27607      317.91928      40902.031      25481.344      55           
   3050000  -7827.2653      112.27974     -7939.5451      0.61640401     222.78375      298.38665      300.37205      302.504        321.48086      40058.396      24955.772      55           
   3051000  -7830.0553      110.55557     -7940.6109      0.61640401     219.36269      251.82612      296.69358      298.7785       316.24368      40971.69       25524.74       57           
   3052000  -7830.5135      111.7629      -7942.2764      0.61640401     221.75826      344.27521      299.92512      301.25042      305.27885      40104.151      24984.277      46           
   3053000  -7829.9237      109.41815     -7939.3419      0.61640401     217.10584      285.66887      295.04818      295.08319      299.09569      40629.342      25311.463      53           
   3054000  -7830.7825      108.35145     -7939.134       0.61640401     214.9893       259.85062      293.06788      293.61267      290.02557      40405.704      25172.14       54           
   3055000  -7830.5099      109.56483     -7940.0747      0.61640401     217.39688      244.19668      299.87618      294.01451      287.61933      40571.72       25275.565      54           
   3056000  -7828.883       107.42294     -7936.3059      0.61640401     213.14698      274.62176      288.5226       290.18678      300.27357      40721.46       25368.851      59           
   3057000  -7831.5191      109.58099     -7941.1001      0.61640401     217.42893      296.05572      296.97271      293.26991      297.71449      39996.524      24917.227      55           
   3058000  -7830.6686      110.50754     -7941.1761      0.61640401     219.26738      247.96999      299.63256      297.11153      303.47888      40999.927      25542.332      50           
   3059000  -7834.6783      109.7273      -7944.4056      0.61640401     217.71925      329.98189      287.7892       304.70238      306.1101       40156.335      25016.786      40           
   3060000  -7830.1042      110.25859     -7940.3628      0.61640401     218.77343      297.185        300.62963      291.08779      304.69063      41009.674      25548.404      47           
   3061000  -7828.6762      111.3693      -7940.0455      0.61640401     220.97728      308.09401      301.09932      299.11344      300.99913      40080.787      24969.722      59           
   3062000  -7832.7146      108.88354     -7941.5981      0.61640401     216.04507      321.77694      291.60893      295.43643      293.74272      40558.682      25267.442      62           
   3063000  -7828.5158      111.60424     -7940.1201      0.61640401     221.44344      340.30384      300.16914      302.17217      294.66581      40481.027      25219.065      55           
   3064000  -7830.3167      108.6589      -7938.9756      0.61640401     215.59933      278.29783      290.60502      297.46496      294.65605      40380.868      25156.667      53           
   3065000  -7829.7013      110.95777     -7940.659       0.61640401     220.16073      317.4447       299.17477      299.70914      296.08802      40736.197      25378.032      51           
   3066000  -7830.194       108.17118     -7938.3652      0.61640401     214.63161      280.86087      282.15862      304.30118      302.40584      40395.646      25165.874      52           
   3067000  -7830.259       111.34515     -7941.6042      0.61640401     220.92936      301.79051      300.28877      299.21143      306.17937      40853.431      25451.067      55           
   3068000  -7827.239       113.5261      -7940.7651      0.61640401     225.25678      355.57805      304.51936      306.87456      303.46157      39997.112      24917.593      61           
   3069000  -7829.3737      111.80314     -7941.1769      0.61640401     221.83809      391.90185      304.7106       293.91648      296.49038      40945.942      25508.7        53           
   3070000  -7830.3431      111.9494      -7942.2925      0.61640401     222.12829      272.5208       308.42022      296.01096      294.64956      40497.318      25229.214      53           
   3071000  -7833.4726      110.47593     -7943.9485      0.61640401     219.20467      299.60129      299.08813      298.5933       290.09375      40508.287      25236.047      45           
   3072000  -7831.3997      109.88808     -7941.2878      0.61640401     218.03825      288.99622      300.8643       292.02546      289.94425      40520.039      25243.369      44           
   3073000  -7826.3133      112.78448     -7939.0977      0.61640401     223.78526      316.73171      307.57583      302.65607      290.08902      40413.61       25177.065      42           
   3074000  -7825.2106      111.97847     -7937.189       0.61640401     222.18599      293.39267      304.42703      300.85317      295.55995      40915.162      25489.524      48           
   3075000  -7830.0296      112.26036     -7942.2899      0.61640401     222.74531      292.32967      297.66962      310.70032      305.31797      40068.33       24961.961      55           
   3076000  -7830.3396      111.44476     -7941.7844      0.61640401     221.12701      301.89781      299.3215       301.15018      307.1664       40949.813      25511.111      55           
   3077000  -7829.0342      112.21151     -7941.2457      0.61640401     222.64838      316.19237      308.00207      292.72363      309.33195      40149.292      25012.399      53           
   3078000  -7826.8712      112.62201     -7939.4932      0.61640401     223.46288      310.49761      307.53102      296.66746      309.82653      40858.692      25454.344      60           
   3079000  -7828.8497      110.12162     -7938.9713      0.61640401     218.50165      310.07198      300.05361      288.77932      310.76121      40223.536      25058.652      51           
   3080000  -7831.1828      108.94028     -7940.1231      0.61640401     216.15765      332.15132      287.28222      299.00377      305.97401      40681.054      25343.679      52           
   3081000  -7830.5842      109.35264     -7939.9369      0.61640401     216.97585      286.93861      297.23717      292.96605      292.46101      40626.153      25309.476      57           
   3082000  -7826.6443      112.53458     -7939.1788      0.61640401     223.2894       280.91994      308.14983      300.39113      294.75871      40315.061      25115.67       53           
   3083000  -7829.79        109.94957     -7939.7396      0.61640401     218.16028      339.54887      298.30049      292.18759      296.91403      40788.901      25410.866      50           
   3084000  -7826.609       112.66661     -7939.2756      0.61640401     223.55139      287.43276      305.87955      303.54799      298.27144      40157.356      25017.423      54           
   3085000  -7823.9286      114.78222     -7938.7108      0.61640401     227.74914      339.17857      306.71359      317.20925      292.6007       40981.033      25530.561      48           
   3086000  -7826.8186      111.14601     -7937.9646      0.61640401     220.53422      338.35255      294.7393       307.18569      294.40751      40126.829      24998.405      50           
   3087000  -7827.8539      112.14882     -7940.0027      0.61640401     222.52398      286.30793      306.24029      301.0435       290.47439      40862.71       25456.848      46           
   3088000  -7830.8406      110.02416     -7940.8647      0.61640401     218.30827      268.49819      296.78261      300.81559      286.64656      40348.112      25136.261      41           
   3089000  -7827.6635      112.20178     -7939.8652      0.61640401     222.62908      303.1562       308.37176      299.5423       282.37301      40485.89       25222.095      46           
   3090000  -7834.8277      107.86721     -7942.6949      0.61640401     214.02849      363.51033      292.40705      288.89502      279.39099      40534.961      25252.665      46           
   3091000  -7830.05        110.23502     -7940.285       0.61640401     218.72666      342.78775      292.32245      307.75154      280.43569      40201.286      25044.79       40           
   3092000  -7827.0568      111.897       -7938.9538      0.61640401     222.02433      374.74879      300.15786      304.40144      291.09315      40812.319      25425.455      43           
   3093000  -7831.4329      109.80313     -7941.2361      0.61640401     217.8697       331.47643      296.08325      296.6567       291.5462       40100.903      24982.253      36           
   3094000  -7832.4161      110.84892     -7943.265       0.61640401     219.94475      311.39025      300.11001      298.66711      293.46735      41009.217      25548.119      37           
   3095000  -7833.2277      108.29395     -7941.5217      0.61640401     214.87521      300.34307      296.45746      287.36703      285.06007      40058.839      24956.048      43           
   3096000  -7828.3753      111.25566     -7939.631       0.61640401     220.75178      277.45332      301.2861       303.90093      282.99421      40797.084      25415.964      41           
   3097000  -7832.8746      108.86212     -7941.7367      0.61640401     216.00257      295.11724      290.29278      303.46677      275.42867      40332.125      25126.301      49           
   3098000  -7831.5842      109.06518     -7940.6494      0.61640401     216.40548      268.53441      291.59311      304.90096      272.98191      40549.274      25261.582      50           
   3099000  -7834.0938      110.35574     -7944.4496      0.61640401     218.96618      262.01047      299.32785      303.4872       273.41902      40733.705      25376.479      55           
   3100000  -7829.9502      111.39316     -7941.3433      0.61640401     221.02462      271.11436      301.63146      306.99059      275.08493      40394.811      25165.353      52           
   3101000  -7829.869       110.95193     -7940.8209      0.61640401     220.14913      253.56509      295.46128      312.64455      278.2378       40880.745      25468.083      45           
   3102000  -7826.3917      112.02301     -7938.4147      0.61640401     222.27437      293.67901      303.69533      306.48521      279.17644      40068.047      24961.785      50           
   3103000  -7832.1311      110.40422     -7942.5353      0.61640401     219.06238      355.8988       301.25466      295.12732      277.6144       41085.782      25595.818      54           
   3104000  -7830.415       109.61762     -7940.0326      0.61640401     217.50163      275.61564      296.56405      301.38021      272.99875      40032.759      24939.801      47           
   3105000  -7830.6342      109.99516     -7940.6294      0.61640401     218.25073      258.2916       296.81059      305.55302      270.02014      40634.113      25314.435      52           
   3106000  -7832.3822      107.0961      -7939.4783      0.61640401     212.49846      240.1451       296.8253       284.13227      272.06024      40398.628      25167.732      54           
   3107000  -7828.4816      111.80374     -7940.2854      0.61640401     221.83929      259.53601      306.51072      303.37581      275.65188      40457.162      25204.197      57           
   3108000  -7829.4859      109.34517     -7938.8311      0.61640401     216.96103      271.61163      295.77937      299.89656      276.45337      40634.805      25314.866      57           
   3109000  -7828.9409      111.97824     -7940.9191      0.61640401     222.18552      299.1845       302.8329       307.6141       277.34142      40229.489      25062.361      44           
   3110000  -7832.3373      109.5169      -7941.8542      0.61640401     217.30177      340.66532      293.50429      301.85102      274.68975      40800.444      25418.057      47           
   3111000  -7831.8937      108.26478     -7940.1585      0.61640401     214.81733      331.10152      290.19535      299.1471       268.32271      39880.189      24844.752      51           
   3112000  -7835.1282      107.33603     -7942.4642      0.61640401     212.97453      305.37996      295.05761      287.15107      264.39861      41066.207      25583.623      49           
   3113000  -7833.0296      108.43908     -7941.4687      0.61640401     215.16317      323.66122      293.76572      296.78403      260.48073      40089.843      24975.363      65           
   3114000  -7832.6485      111.63996     -7944.2884      0.61640401     221.51431      283.62794      301.05903      311.74941      263.8527       40862.213      25456.538      60           
   3115000  -7832.2291      111.08167     -7943.3108      0.61640401     220.40656      326.07429      302.59833      301.77314      268.17738      40336.525      25129.042      58           
   3116000  -7829.4942      110.37985     -7939.874       0.61640401     219.01402      283.24753      302.88934      297.23972      272.76464      40504.352      25233.596      59           
   3117000  -7830.9974      108.54158     -7939.539       0.61640401     215.36655      289.77776      295.82482      292.21485      278.59225      40810.996      25424.63       58           
   3118000  -7830.5549      110.60113     -7941.156       0.61640401     219.45309      280.18162      304.15383      295.19448      281.07481      40240.517      25069.231      49           
   3119000  -7830.6924      107.03932     -7937.7317      0.61640401     212.38579      253.52082      290.77969      289.48368      281.60053      41071.451      25586.89       52           
   3120000  -7832.7119      110.75382     -7943.4657      0.61640401     219.75606      274.69645      294.3713       310.5869       283.65109      40052.462      24952.075      57           
   3121000  -7834.5275      109.33942     -7943.8669      0.61640401     216.94963      309.62719      296.14614      295.81436      281.78271      41003.268      25544.413      59           
   3122000  -7830.6357      110.15281     -7940.7885      0.61640401     218.56353      282.90763      297.99777      302.65098      273.71925      40227.555      25061.156      49           
   3123000  -7829.6551      110.17783     -7939.8329      0.61640401     218.61318      357.49162      298.28246      299.05497      274.10649      40846.772      25446.918      46           
   3124000  -7833.4287      107.83667     -7941.2654      0.61640401     213.96789      297.72455      285.2542       304.89041      268.32022      40400.931      25169.166      48           
   3125000  -7834.1762      107.98942     -7942.1656      0.61640401     214.27097      275.06037      289.85134      298.65202      274.7912       40581.859      25281.882      57           
   3126000  -7831.7707      108.79757     -7940.5683      0.61640401     215.8745       250.10379      300.48383      289.27397      278.66701      40460.22       25206.102      56           
   3127000  -7829.3317      111.39335     -7940.7251      0.61640401     221.025        283.51673      298.35067      309.9708       279.85185      40260.935      25081.951      54           
   3128000  -7829.6071      111.00926     -7940.6164      0.61640401     220.2629       354.05889      296.08244      306.7579       279.31103      41032.615      25562.696      56           
   3129000  -7827.2392      113.02593     -7940.2651      0.61640401     224.26433      335.25568      309.32122      303.15236      279.85971      39966.598      24898.583      53           
   3130000  -7830.8181      111.30142     -7942.1196      0.61640401     220.84259      288.68914      296.41579      310.79586      283.849        40977.517      25528.371      56           
   3131000  -7828.341       110.89726     -7939.2383      0.61640401     220.04067      337.89797      300.91221      300.31401      276.02865      40299.212      25105.797      56           
   3132000  -7832.6286      108.52661     -7941.1552      0.61640401     215.33686      293.26891      293.31993      296.27579      276.31896      40842.825      25444.459      44           
   3133000  -7833.5659      110.06602     -7943.632       0.61640401     218.39132      187.73262      301.79368      298.38088      281.4818       40324.262      25121.403      44           
   3134000  -7831.0279      111.11071     -7942.1386      0.61640401     220.46418      281.6795       297.82404      306.59649      288.07668      40574.162      25277.086      49           
   3135000  -7834.1804      106.93702     -7941.1174      0.61640401     212.18282      250.66995      288.6927       290.09047      289.47495      40681.418      25343.905      54           
   3136000  -7832.4309      108.27237     -7940.7033      0.61640401     214.8324       208.77277      290.2179       298.69748      293.96106      40325.069      25121.905      51           
   3137000  -7828.9177      112.70386     -7941.6216      0.61640401     223.6253       260.40481      304.87276      307.28832      295.64247      40944.813      25507.997      53           
   3138000  -7829.9824      109.452       -7939.4344      0.61640401     217.173        337.31636      294.78455      294.89149      292.25909      40222.521      25058.02       51           
   3139000  -7832.785       108.42084     -7941.2059      0.61640401     215.12699      307.33537      288.5507       297.70862      292.8631       40956.066      25515.007      54           
   3140000  -7830.1607      110.48947     -7940.6502      0.61640401     219.23153      291.57824      299.19256      299.57547      287.38229      40149.515      25012.538      56           
   3141000  -7831.1401      110.30657     -7941.4466      0.61640401     218.86862      289.21298      299.76682      297.2193       288.42407      40762.253      25394.264      64           
   3142000  -7828.0094      112.61732     -7940.6267      0.61640401     223.45358      290.19414      310.39495      298.49381      290.04005      40276.761      25091.81       64           
   3143000  -7831.1472      108.11028     -7939.2575      0.61640401     214.51079      322.87388      289.27062      293.64253      292.20151      40591.269      25287.744      55           
   3144000  -7828.1167      113.40583     -7941.5225      0.61640401     225.01812      279.88223      309.14839      307.31649      287.74251      40570.021      25274.507      60           
   3145000  -7832.3702      109.6399      -7942.0101      0.61640401     217.54582      285.29209      295.22466      299.69162      286.40887      40490.633      25225.049      60           
   3146000  -7829.1262      109.79027     -7938.9165      0.61640401     217.84418      291.81066      291.05105      307.01297      285.01518      40654.761      25327.299      58           
   3147000  -7831.7289      109.49015     -7941.2191      0.61640401     217.24869      360.96974      294.829        296.76735      279.7212       40361.136      25144.375      56           
   3148000  -7834.0707      110.05891     -7944.1296      0.61640401     218.37722      332.10945      300.21566      294.54943      279.13808      40709.395      25361.335      59           
   3149000  -7832.1509      110.79851     -7942.9494      0.61640401     219.84472      264.86912      300.00609      303.04457      283.46219      40335.363      25128.318      55           
   3150000  -7827.9884      111.67701     -7939.6654      0.61640401     221.58783      312.77777      290.17345      321.64333      284.11636      40539.516      25255.503      56           
   3151000  -7829.1393      111.38454     -7940.5238      0.61640401     221.00752      328.59273      299.74925      303.91581      285.1181       40580.964      25281.324      60           
   3152000  -7831.9423      109.21772     -7941.16        0.61640401     216.70815      333.28028      294.73553      293.13822      292.88552      40426.23       25184.927      54           
   3153000  -7828.0342      111.67301     -7939.7072      0.61640401     221.57989      268.34451      306.47026      297.35244      293.76361      40808.222      25422.902      57           
   3154000  -7827.023       113.30285     -7940.3259      0.61640401     224.81379      292.7221       307.71321      306.48561      293.57295      40355.196      25140.674      57           
   3155000  -7828.5849      112.79543     -7941.3804      0.61640401     223.80697      287.39092      305.28771      308.03109      287.95964      40795.937      25415.249      59           
   3156000  -7830.7555      109.17571     -7939.9312      0.61640401     216.62479      286.15092      296.62863      294.89066      283.20052      40425.879      25184.708      65           
   3157000  -7831.9244      109.66898     -7941.5934      0.61640401     217.60353      284.30014      308.15978      280.88779      285.60599      40678.16       25341.876      59           
   3158000  -7830.959       109.44929     -7940.4083      0.61640401     217.16761      290.65683      294.61704      299.65228      283.0958       40269.796      25087.471      64           
   3159000  -7832.5902      111.34934     -7943.9396      0.61640401     220.93768      261.38235      299.75953      306.42908      289.42225      40561.722      25269.337      59           
   3160000  -7830.0084      110.83869     -7940.8471      0.61640401     219.92446      263.24589      290.65628      316.11711      289.31284      40712.903      25363.52       62           
   3161000  -7831.9493      113.18594     -7945.1353      0.61640401     224.58182      266.74115      302.46579      315.66942      290.64792      40355.932      25141.133      62           
   3162000  -7832.0701      110.48044     -7942.5505      0.61640401     219.21361      267.38195      303.69323      293.0562       291.71443      40738.647      25379.558      56           
   3163000  -7835.7048      108.13684     -7943.8416      0.61640401     214.56348      281.35565      295.38327      286.26307      295.40975      40253.795      25077.503      66           
   3164000  -7828.4604      111.10234     -7939.5627      0.61640401     220.44759      314.08536      304.43446      293.1587       295.41258      40852.053      25450.209      57           
   3165000  -7829.3356      110.43205     -7939.7676      0.61640401     219.1176       299.99206      294.58165      304.33648      292.18541      40110.19       24988.039      63           
   3166000  -7829.1078      110.90236     -7940.0101      0.61640401     220.05079      305.14058      302.84906      295.13681      292.84179      40658.399      25329.565      62           
   3167000  -7832.1153      110.01139     -7942.1267      0.61640401     218.28293      329.18305      293.96292      300.78083      290.14978      40504.201      25233.502      64           
   3168000  -7827.9728      112.77647     -7940.7493      0.61640401     223.76937      318.36904      303.21984      305.58581      301.97303      40694.17       25351.85       68           
   3169000  -7831.4867      109.51442     -7941.0011      0.61640401     217.29684      274.48933      296.37338      293.22041      304.98619      40499.317      25230.459      63           
   3170000  -7829.5562      111.56278     -7941.119       0.61640401     221.36118      301.8525       309.31986      289.21557      298.84344      40336.46       25129.002      65           
   3171000  -7832.2886      109.88987     -7942.1785      0.61640401     218.0418       304.35919      291.5721       304.29174      292.89362      40764.765      25395.829      64           
   3172000  -7833.2954      109.02292     -7942.3183      0.61640401     216.32162      277.54082      296.9201       290.94209      294.75606      40077.222      24967.5        60           
   3173000  -7830.1205      108.59798     -7938.7185      0.61640401     215.47846      293.39142      283.18449      307.93036      292.24464      40915.97       25490.028      52           
   3174000  -7832.5386      110.62771     -7943.1663      0.61640401     219.50582      300.57119      301.70584      294.61682      294.62143      40061.381      24957.632      58           
   3175000  -7829.6793      110.80947     -7940.4888      0.61640401     219.86647      312.11394      296.3233       302.8383       297.04808      41021.775      25555.943      53           
   3176000  -7831.6945      109.8327      -7941.5272      0.61640401     217.92838      286.12991      299.19943      292.25201      298.39777      40154.318      25015.53       59           
   3177000  -7831.1255      111.53105     -7942.6565      0.61640401     221.29823      260.75264      294.48427      312.36585      302.23483      40510.722      25237.565      54           
   3178000  -7831.5139      110.73029     -7942.2441      0.61640401     219.70936      284.86997      302.68858      292.54805      304.30256      40648.248      25323.241      65           
   3179000  -7829.4015      110.84682     -7940.2483      0.61640401     219.94058      258.64725      296.52133      304.17574      302.66404      40353.681      25139.73       54           
   3180000  -7830.5757      109.54799     -7940.1237      0.61640401     217.36347      246.2251       302.01706      287.46489      299.33491      40680.787      25343.512      50           
   3181000  -7829.1959      111.0106      -7940.2065      0.61640401     220.26555      319.17354      293.40207      309.70479      292.29719      40448.745      25198.954      46           
   3182000  -7826.6468      112.54814     -7939.195       0.61640401     223.31632      264.62824      309.37276      298.9495       295.21448      40944.247      25507.644      43           
   3183000  -7825.6421      112.51592     -7938.158       0.61640401     223.25238      368.63458      301.20394      306.88875      292.85278      40015.187      24928.854      49           
   3184000  -7829.3867      110.68371     -7940.0704      0.61640401     219.61694      310.08456      287.13341      315.17957      298.8314       40790.996      25412.171      60           
   3185000  -7831.6825      110.35404     -7942.0366      0.61640401     218.96281      305.80095      299.67909      293.14995      303.29624      40248.846      25074.419      61           
   3186000  -7827.3009      112.44368     -7939.7445      0.61640401     223.10904      229.96154      308.24393      298.88078      307.38543      40629.09       25311.306      52           
   3187000  -7830.5951      108.55002     -7939.1451      0.61640401     215.3833       256.59923      295.25479      287.10632      309.55422      40557.556      25266.741      52           
   3188000  -7830.7489      113.25451     -7944.0034      0.61640401     224.71789      239.90526      310.24252      301.49         305.83827      40328.466      25124.022      46           
   3189000  -7829.1911      110.54485     -7939.736       0.61640401     219.34142      270.30537      299.73783      296.56982      302.66019      40807.648      25422.545      56           
   3190000  -7826.7726      114.32668     -7941.0993      0.61640401     226.84527      292.35617      305.55007      316.23771      298.47341      40274.285      25090.268      57           
   3191000  -7832.2917      108.78352     -7941.0752      0.61640401     215.84661      259.73705      295.51785      292.36144      294.28141      40636.649      25316.015      60           
   3192000  -7828.6433      111.15491     -7939.7982      0.61640401     220.55189      312.80757      300.33299      299.47271      296.85392      40144.198      25009.225      53           
   3193000  -7825.2489      113.13228     -7938.3812      0.61640401     224.47536      296.80208      311.43451      299.89742      291.60565      40936.881      25503.055      50           
   3194000  -7826.1814      111.84491     -7938.0263      0.61640401     221.92097      331.43959      298.34058      308.71026      289.0141       40136.578      25004.479      51           
   3195000  -7830.1577      110.25677     -7940.4145      0.61640401     218.76982      278.20444      298.83448      298.86597      287.72498      40779.385      25404.937      45           
   3196000  -7830.9541      109.71862     -7940.6727      0.61640401     217.70201      351.38878      291.99806      301.27308      288.52908      40351.391      25138.304      52           
   3197000  -7828.3897      109.92466     -7938.3144      0.61640401     218.11084      314.00842      293.60863      302.92718      286.0362       40452.507      25201.297      51           
   3198000  -7827.965       112.81025     -7940.7753      0.61640401     223.83638      365.69953      312.64685      293.77487      286.73054      40683.546      25345.231      47           
   3199000  -7831.4846      110.75685     -7942.2414      0.61640401     219.76206      316.67763      301.45913      295.23222      294.37287      40479.121      25217.877      53           
   3200000  -7827.2628      113.73346     -7940.9963      0.61640401     225.66822      337.05847      309.24089      305.96888      291.25993      40731.161      25374.894      48           
   3201000  -7829.8256      108.60118     -7938.4268      0.61640401     215.48482      288.98238      294.36862      291.44153      292.2627       40291.292      25100.863      42           
   3202000  -7829.0179      110.9771      -7939.995       0.61640401     220.19908      266.57712      297.34571      305.10372      296.02799      40877.88       25466.298      52           
   3203000  -7830.3864      109.89964     -7940.286       0.61640401     218.0612       323.4284       290.88978      306.28435      286.50866      40183.877      25033.945      49           
   3204000  -7829.9633      110.27696     -7940.2402      0.61640401     218.80986      293.20335      296.483        303.5273       281.44107      40913.135      25488.261      46           
   3205000  -7831.2904      108.10399     -7939.3944      0.61640401     214.4983       277.39377      294.53439      290.71784      281.50384      40350.145      25137.527      41           
   3206000  -7830.5984      109.39823     -7939.9967      0.61640401     217.06631      269.3825       294.20212      300.25124      285.97699      40475.32       25215.509      48           
   3207000  -7830.5738      108.70902     -7939.2828      0.61640401     215.69879      296.60518      293.48079      293.43082      291.68232      40400.051      25168.618      42           
   3208000  -7826.8085      114.74721     -7941.5557      0.61640401     227.67968      333.48027      310.42875      309.61602      300.95509      40523.982      25245.825      47           
   3209000  -7826.7029      115.05725     -7941.7602      0.61640401     228.29485      323.65475      303.64241      321.14564      305.73007      40550.975      25262.641      53           
   3210000  -7830.8375      111.56626     -7942.4038      0.61640401     221.36808      330.1716       298.94967      300.91614      308.8692       40404.711      25171.521      46           
   3211000  -7826.933       111.39331     -7938.3263      0.61640401     221.02492      295.2479       300.98416      300.2869       300.39898      40712.554      25363.303      49           
   3212000  -7828.0033      113.08534     -7941.0887      0.61640401     224.38221      269.91487      306.07771      306.14484      301.82973      40207.158      25048.449      46           
   3213000  -7830.388       109.51653     -7939.9046      0.61640401     217.30105      281.1558       298.33653      292.08479      294.84234      40889.615      25473.609      44           
   3214000  -7828.3849      112.02103     -7940.406       0.61640401     222.27044      291.36883      311.27814      292.1818       291.06492      40338.497      25130.271      48           
   3215000  -7828.8532      111.14671     -7939.9999      0.61640401     220.53562      346.91561      299.9498       299.97266      290.23486      40535.631      25253.083      52           
   3216000  -7826.2017      113.34145     -7939.5432      0.61640401     224.89038      311.71764      308.14681      304.01838      298.40404      40594.393      25289.69       48           
   3217000  -7828.4133      111.46318     -7939.8765      0.61640401     221.16356      319.10765      300.36934      299.53723      304.75902      40462.657      25207.621      48           
   3218000  -7829.2964      111.2766      -7940.573       0.61640401     220.79334      362.53818      298.84721      298.07042      307.28327      40464.827      25208.973      43           
   3219000  -7826.5529      113.79471     -7940.3476      0.61640401     225.78975      346.965        301.89407      313.49546      304.42015      40395.651      25165.877      51           
   3220000  -7830.1314      110.56788     -7940.6992      0.61640401     219.38711      336.26837      291.3566       307.08021      297.19065      40944.508      25507.806      55           
   3221000  -7834.131       109.43983     -7943.5708      0.61640401     217.14886      285.34051      296.66848      294.27038      293.22873      40313.566      25114.739      48           
   3222000  -7829.6654      112.70706     -7942.3724      0.61640401     223.63165      330.497        306.79065      302.5092       289.5942       40770.302      25399.279      52           
   3223000  -7831.1945      108.90216     -7940.0966      0.61640401     216.08201      288.95175      297.30118      289.57272      291.53124      40289.504      25099.749      54           
   3224000  -7828.4414      111.7584      -7940.1998      0.61640401     221.74932      308.75824      294.53606      314.71595      289.40467      40546.382      25259.78       53           
   3225000  -7830.5453      111.74959     -7942.2949      0.61640401     221.73183      321.03803      302.29806      300.33063      298.45392      40694.141      25351.832      47           
   3226000  -7829.9821      111.34072     -7941.3228      0.61640401     220.92057      352.64095      298.10093      302.23207      298.15025      40357.353      25142.018      46           
   3227000  -7831.5332      111.09129     -7942.6245      0.61640401     220.42566      362.27754      299.58863      298.9716       293.4861       40617.527      25304.102      45           
   3228000  -7828.2363      110.94954     -7939.1858      0.61640401     220.1444       277.45692      292.82409      312.44922      290.2206       40438.323      25192.461      45           
   3229000  -7834.4018      107.71883     -7942.1206      0.61640401     213.73408      326.24324      285.27435      296.90874      292.58012      40746.036      25384.162      39           
   3230000  -7828.9107      111.78248     -7940.6932      0.61640401     221.79711      399.07041      297.41725      306.95439      290.24057      40255.422      25078.516      42           
   3231000  -7826.205       115.28376     -7941.4888      0.61640401     228.7443       358.71149      314.22552      310.57902      288.11768      40917.18       25490.781      40           
   3232000  -7830.8896      111.33229     -7942.2219      0.61640401     220.90385      314.6856       301.75571      300.38066      290.77737      40219.841      25056.35       40           
   3233000  -7830.9746      110.45402     -7941.4287      0.61640401     219.16119      358.25892      302.42226      290.54962      289.72186      40478.896      25217.737      54           
   3234000  -7830.8192      108.53785     -7939.357       0.61640401     215.35917      307.016        293.09748      292.23755      290.97672      40571.441      25275.391      58           
   3235000  -7827.5943      112.65947     -7940.2538      0.61640401     223.53721      312.48613      308.13339      301.36349      287.89783      40466.36       25209.927      59           
   3236000  -7832.7502      108.77723     -7941.5275      0.61640401     215.83412      265.12714      292.69611      298.03721      285.67904      40470.151      25212.289      48           
   3237000  -7828.7627      111.81751     -7940.5802      0.61640401     221.86661      299.71265      300.92577      307.53535      283.71192      40432.701      25188.958      42           
   3238000  -7830.9422      110.264       -7941.2062      0.61640401     218.78415      239.14112      302.75418      293.19428      292.68448      40874.44       25464.155      40           
   3239000  -7830.3112      110.34696     -7940.6581      0.61640401     218.94876      265.14165      297.56555      299.98445      295.79737      40212.313      25051.66       46           
   3240000  -7835.6212      107.82949     -7943.4507      0.61640401     213.95365      364.15471      290.12807      288.65268      292.686        40874.947      25464.471      45           
   3241000  -7826.1925      111.25092     -7937.4434      0.61640401     220.74238      326.65318      298.14856      303.25981      295.62171      40537.14       25254.022      46           
   3242000  -7828.0653      111.51315     -7939.5785      0.61640401     221.2627       333.11907      299.60959      302.78965      295.56955      40612.805      25301.161      46           
   3243000  -7829.933       110.48464     -7940.4176      0.61640401     219.22194      368.2176       302.85275      290.71921      285.94859      40523.516      25245.535      51           
   3244000  -7827.2953      113.16657     -7940.4619      0.61640401     224.54339      321.95144      309.53602      304.53139      280.91649      40571.427      25275.383      48           
   3245000  -7827.9566      110.82706     -7938.7837      0.61640401     219.90138      286.30864      303.17437      297.78832      281.71221      40744.771      25383.374      38           
   3246000  -7825.7764      112.101       -7937.8774      0.61640401     222.4291       296.74306      300.326        310.98148      282.80495      40565.06       25271.416      42           
   3247000  -7826.2809      114.0583      -7940.3392      0.61640401     226.31274      322.79016      306.49324      313.53808      290.27387      40601.324      25294.008      45           
   3248000  -7832.1282      109.61254     -7941.7408      0.61640401     217.49155      376.46081      284.23357      309.95794      295.26762      40183.784      25033.887      41           
   3249000  -7829.2833      111.30054     -7940.5839      0.61640401     220.84084      311.23012      295.05251      309.22919      294.82149      40789.653      25411.334      40           
   3250000  -7831.4265      111.90454     -7943.331       0.61640401     222.03929      332.99175      299.15147      306.60769      295.65018      40388.575      25161.468      40           
   3251000  -7831.564       109.3545      -7940.9185      0.61640401     216.97954      347.10599      294.08773      294.15848      296.02285      40793.817      25413.928      44           
   3252000  -7831.4619      110.19062     -7941.6526      0.61640401     218.63856      355.66605      293.93372      301.40552      291.22871      40637.66       25316.645      46           
   3253000  -7831.8937      109.91825     -7941.8119      0.61640401     218.09812      345.5244       297.78231      294.90293      288.24479      40403.304      25170.645      44           
   3254000  -7825.828       112.26448     -7938.0925      0.61640401     222.75348      332.65977      305.30575      302.16588      285.01585      40675.018      25339.918      56           
   3255000  -7828.184       112.05872     -7940.2427      0.61640401     222.34521      321.40739      302.7496       304.68753      287.12523      40506.871      25235.165      51           
   3256000  -7831.5587      109.65283     -7941.2116      0.61640401     217.57148      319.93253      294.70449      297.61715      291.70257      40462.1        25207.274      48           
   3257000  -7830.5107      112.26395     -7942.7746      0.61640401     222.75243      355.13966      293.60906      316.6908       295.71449      40677.698      25341.588      41           
   3258000  -7832.9366      110.66121     -7943.5978      0.61640401     219.57229      312.21023      292.77058      306.83583      298.33544      40633.617      25314.126      43           
   3259000  -7829.2099      112.39983     -7941.6098      0.61640401     223.02204      317.35748      299.84649      310.10645      294.49341      40363.228      25145.678      44           
   3260000  -7831.0582      109.58116     -7940.6394      0.61640401     217.42928      297.12961      300.98905      288.21716      293.7697       40727.727      25372.755      55           
   3261000  -7826.0505      112.07732     -7938.1278      0.61640401     222.38212      299.12788      306.09606      299.35289      293.43289      40583.355      25282.814      51           
   3262000  -7823.7243      112.09674     -7935.821       0.61640401     222.42064      309.93707      304.24476      303.1038       288.23603      40200.002      25043.991      48           
   3263000  -7824.6339      115.05508     -7939.689       0.61640401     228.29055      278.03439      314.06398      311.17488      292.74236      40628.153      25310.722      54           
   3264000  -7827.4704      110.3046      -7937.775       0.61640401     218.86472      270.0182       305.21662      287.28071      299.01631      40645.461      25321.505      49           
   3265000  -7829.6052      111.46747     -7941.0727      0.61640401     221.17206      263.58816      303.33102      298.17462      304.85954      40574.294      25277.169      61           
   3266000  -7830.9079      110.32666     -7941.2346      0.61640401     218.90849      313.18911      289.38215      306.5527       308.39182      40399.91       25168.53       64           
   3267000  -7833.7077      109.1287      -7942.8364      0.61640401     216.53151      304.72322      287.66368      300.96364      306.99653      40418.031      25179.819      63           
   3268000  -7832.559       107.41924     -7939.9783      0.61640401     213.13964      252.7234       281.4643       300.06835      308.50029      40441.728      25194.582      64           
   3269000  -7833.447       108.61051     -7942.0575      0.61640401     215.50332      308.64893      292.04144      291.93748      300.37521      40565.019      25271.391      62           
   3270000  -7833.1348      107.72337     -7940.8581      0.61640401     213.74307      230.84074      288.19233      297.17489      292.19132      40414.09       25177.364      55           
   3271000  -7833.2409      108.16319     -7941.4041      0.61640401     214.61575      320.4782       288.66602      295.62509      289.2828       40674.541      25339.621      60           
   3272000  -7832.3731      110.57238     -7942.9454      0.61640401     219.39605      239.91411      293.09514      309.3314       298.47406      40578.114      25279.549      56           
   3273000  -7830.6744      110.48721     -7941.1616      0.61640401     219.22704      310.74718      298.43256      295.92         302.56374      40352.77       25139.163      58           
   3274000  -7828.4407      112.35516     -7940.7959      0.61640401     222.9334       231.97638      302.14554      307.59026      307.21735      40507.414      25235.504      57           
   3275000  -7830.166       109.90546     -7940.0715      0.61640401     218.07276      251.36775      293.28146      302.59353      301.75456      40628.86       25311.163      55           
   3276000  -7830.615       111.90945     -7942.5244      0.61640401     222.04902      269.06436      294.38431      313.84191      306.23165      40505.064      25234.039      51           
   3277000  -7830.4851      110.81608     -7941.3011      0.61640401     219.87958      292.46966      301.40113      294.52024      304.07695      40449.731      25199.568      49           
   3278000  -7827.1527      111.43485     -7938.5875      0.61640401     221.10733      336.83654      298.22516      302.93484      299.71208      40708.354      25360.686      49           
   3279000  -7829.0968      110.33096     -7939.4278      0.61640401     218.91702      303.67083      296.09803      301.14049      292.90354      40550.602      25262.409      42           
   3280000  -7825.4305      114.09377     -7939.5242      0.61640401     226.38312      284.65509      308.43161      311.1579       295.25581      40435.838      25190.913      39           
   3281000  -7830.3613      111.26386     -7941.6252      0.61640401     220.76805      230.2047       307.40931      291.57894      301.44653      40653.14       25326.289      36           
   3282000  -7834.5474      108.83665     -7943.384       0.61640401     215.95202      280.82151      292.40392      293.47789      303.81119      40576.78       25278.717      42           
   3283000  -7830.9345      108.98633     -7939.9209      0.61640401     216.24902      349.48317      292.25653      291.82446      304.69461      40647.661      25322.875      43           
   3284000  -7828.0667      111.91447     -7939.9812      0.61640401     222.059        314.39231      309.49636      290.64432      300.54431      40368.301      25148.838      47           
   3285000  -7831.1103      110.33154     -7941.4419      0.61640401     218.91817      291.77023      298.38996      295.66039      302.5126       40462.027      25207.228      35           
   3286000  -7829.6786      110.26762     -7939.9462      0.61640401     218.79133      293.22843      293.5043       303.11035      300.07352      40787.212      25409.813      45           
   3287000  -7827.652       112.69101     -7940.343       0.61640401     223.5998       283.69503      309.72016      298.95395      294.57628      40584.022      25283.229      41           
   3288000  -7826.2455      112.1963      -7938.4418      0.61640401     222.6182       261.06652      306.18733      302.46395      291.29268      40579.67       25280.518      48           
   3289000  -7830.5243      110.92583     -7941.4501      0.61640401     220.09736      244.58392      295.82057      309.2338       290.90676      40322.371      25120.224      49           
   3290000  -7831.0072      110.39317     -7941.4004      0.61640401     219.04046      273.89025      308.02336      285.92121      289.59446      40583.249      25282.748      47           
   3291000  -7830.1509      110.82074     -7940.9716      0.61640401     219.88884      322.11525      290.84426      312.10748      291.2553       40540.771      25256.284      50           
   3292000  -7831.7475      109.69071     -7941.4382      0.61640401     217.64664      240.71332      299.26753      293.63083      296.46264      40575.096      25277.668      50           
   3293000  -7830.1519      110.57205     -7940.724       0.61640401     219.39539      286.52612      297.80799      299.76406      298.24958      40668.415      25335.805      47           
   3294000  -7832.9562      110.36504     -7943.3213      0.61640401     218.98463      283.39017      298.50493      296.46721      302.05102      40577.915      25279.424      55           
   3295000  -7828.1054      111.74204     -7939.8474      0.61640401     221.71686      316.41109      308.9289       290.73309      297.47829      40414.833      25177.827      56           
   3296000  -7830.1331      111.09784     -7941.2309      0.61640401     220.43866      341.78753      294.26011      307.43426      292.4695       40570.948      25275.084      59           
   3297000  -7827.1972      112.90193     -7940.0991      0.61640401     224.0183       323.72293      306.81993      305.34281      285.47775      40625.75       25309.225      52           
   3298000  -7830.3907      109.01227     -7939.403       0.61640401     216.3005       313.93354      288.74141      305.15516      278.60972      40396.462      25166.382      52           
   3299000  -7831.5969      109.20867     -7940.8056      0.61640401     216.69019      322.90252      290.88471      302.34836      281.7275       40573.913      25276.931      48           
   3300000  -7828.5261      111.79187     -7940.318       0.61640401     221.81574      346.89131      295.74953      313.07825      282.2223       40681.674      25344.065      52           
   3301000  -7829.2892      109.36668     -7938.6559      0.61640401     217.0037       303.15617      300.45206      288.37671      288.2624       40481.346      25219.264      61           
   3302000  -7830.8764      110.08092     -7940.9573      0.61640401     218.4209       309.2263       294.53237      301.73015      290.62265      40547.107      25260.232      56           
   3303000  -7827.6112      112.5528      -7940.164       0.61640401     223.32555      276.66877      301.63991      309.47961      297.88685      40516.547      25241.193      46           
   3304000  -7830.0093      110.10322     -7940.1125      0.61640401     218.46514      296.51417      296.12514      298.67678      296.75076      40377.381      25154.495      50           
   3305000  -7833.433       110.67517     -7944.1081      0.61640401     219.59999      295.98109      294.84377      304.16179      299.75947      40602.573      25294.786      46           
   3306000  -7831.3398      108.31999     -7939.6597      0.61640401     214.92687      283.71143      286.96103      299.90312      295.13172      40677.327      25341.357      46           
   3307000  -7831.2761      110.58097     -7941.8571      0.61640401     219.41308      316.99299      299.94141      297.48842      289.54472      40607.155      25297.641      47           
   3308000  -7829.2792      111.47265     -7940.7518      0.61640401     221.18234      332.12188      303.61364      297.94511      290.25769      40206.33       25047.933      46           
   3309000  -7827.8033      112.74081     -7940.5441      0.61640401     223.6986       335.02566      300.62046      313.24214      283.13385      40460.308      25206.157      54           
   3310000  -7826.735       112.20741     -7938.9424      0.61640401     222.64025      290.34786      301.13289      309.89123      286.58818      40528.838      25248.851      51           
   3311000  -7829.6617      110.35603     -7940.0177      0.61640401     218.96676      284.51097      304.35242      289.44363      294.90341      40657.56       25329.042      56           
   3312000  -7828.0314      113.05346     -7941.0848      0.61640401     224.31897      286.41834      315.37217      291.77617      300.84905      40251.144      25075.851      58           
   3313000  -7831.3823      112.01899     -7943.4013      0.61640401     222.26638      309.81893      300.61485      304.58306      301.38017      40583.084      25282.645      53           
   3314000  -7830.5122      111.70669     -7942.2189      0.61640401     221.64671      318.38448      303.05102      300.79633      291.63048      40766.981      25397.21       45           
   3315000  -7829.6979      110.92855     -7940.6265      0.61640401     220.10275      318.35622      296.6984       306.55887      282.2655       40448.911      25199.057      54           
   3316000  -7827.7209      110.24588     -7937.9668      0.61640401     218.7482       345.4669       303.90206      291.204        273.78185      40534.968      25252.669      56           
   3317000  -7826.9917      111.87094     -7938.8626      0.61640401     221.97262      336.12814      308.43994      297.1318       274.92472      40250.827      25075.654      52           
   3318000  -7828.734       111.78128     -7940.5153      0.61640401     221.79472      332.28933      304.86768      301.28963      278.27076      40998.286      25541.309      48           
   3319000  -7831.8047      111.93425     -7943.7389      0.61640401     222.09825      334.75996      305.88934      298.69045      286.47464      40341.402      25132.081      49           
   3320000  -7831.0693      110.22339     -7941.2927      0.61640401     218.70359      309.42348      295.20439      298.5516       303.87092      40513.691      25239.414      47           
   3321000  -7827.8724      111.71234     -7939.5847      0.61640401     221.65793      324.90152      299.94177      300.93714      308.45538      40686.173      25346.868      42           
   3322000  -7830.0082      113.57124     -7943.5795      0.61640401     225.34634      322.95742      303.10411      310.75413      306.45648      40380.756      25156.598      46           
   3323000  -7830.7456      111.64586     -7942.3914      0.61640401     221.52603      308.79183      294.63982      310.35906      303.07429      40433.155      25189.241      46           
   3324000  -7833.0378      108.50844     -7941.5462      0.61640401     215.3008       295.20811      294.33581      288.24267      301.27492      40553.173      25264.01       50           
   3325000  -7831.5785      108.58625     -7940.1648      0.61640401     215.45518      281.80845      297.44036      285.73009      298.20662      40711.502      25362.648      56           
   3326000  -7830.6463      108.19222     -7938.8385      0.61640401     214.67336      233.21421      297.32839      286.09414      293.54471      40310.578      25112.878      46           
   3327000  -7830.9148      109.84043     -7940.7552      0.61640401     217.94372      304.49453      302.8837       288.18252      289.53291      40769.098      25398.528      46           
   3328000  -7832.5808      108.56796     -7941.1488      0.61640401     215.41891      306.54585      292.52889      293.79286      290.07577      40415.945      25178.52       43           
   3329000  -7830.9568      110.59137     -7941.5481      0.61640401     219.43371      347.23279      295.72635      301.04449      295.29488      40432.745      25188.986      47           
   3330000  -7832.0621      110.53148     -7942.5935      0.61640401     219.31488      310.69725      303.23027      290.01717      299.17029      40582.968      25282.573      50           
   3331000  -7828.1316      113.07891     -7941.2105      0.61640401     224.36947      363.67071      306.89451      301.61742      297.60429      40556.445      25266.049      49           
   3332000  -7834.4624      110.30139     -7944.7637      0.61640401     218.85835      331.92016      295.65172      298.66114      297.37407      40721.48       25368.864      61           
   3333000  -7832.4638      109.34578     -7941.8096      0.61640401     216.96224      349.88983      295.47451      288.72846      306.83838      40340.64       25131.606      55           
   3334000  -7826.561       113.05737     -7939.6183      0.61640401     224.32673      311.70358      308.34343      300.27125      303.1704       40534.675      25252.487      59           
   3335000  -7831.7828      108.50105     -7940.2838      0.61640401     215.28613      318.7289       288.66205      296.74617      295.57813      40400.751      25169.054      60           
   3336000  -7830.0339      110.02787     -7940.0618      0.61640401     218.31563      262.23445      295.39519      300.83629      296.88227      40831.067      25437.135      51           
   3337000  -7830.4801      109.72387     -7940.204       0.61640401     217.71244      272.58961      296.39969      296.84929      296.21751      40327.834      25123.628      57           
   3338000  -7828.2002      112.55733     -7940.7575      0.61640401     223.33455      290.82984      309.8859       296.12736      300.04933      40593.769      25289.301      55           
   3339000  -7830.0277      110.38959     -7940.4173      0.61640401     219.03335      295.71642      297.38598      298.98624      296.81686      40468.722      25211.399      60           
   3340000  -7833.4931      110.81367     -7944.3068      0.61640401     219.87481      325.44479      301.9624       293.74661      296.04277      40480.4        25218.674      63           
   3341000  -7827.898       112.31194     -7940.2099      0.61640401     222.84764      326.04796      306.45398      298.95538      292.5077       40795.712      25415.109      67           
   3342000  -7829.1477      111.46556     -7940.6132      0.61640401     221.16827      312.7529       306.0833       293.19393      296.14221      40314.993      25115.628      70           
   3343000  -7829.6906      109.92193     -7939.6125      0.61640401     218.10542      345.65575      300.91427      287.60514      294.51684      40543.09       25257.729      66           
   3344000  -7831.9318      110.85527     -7942.787       0.61640401     219.95735      366.03417      300.90193      294.83482      291.41687      40543.838      25258.195      55           
   3345000  -7832.2734      111.30265     -7943.576       0.61640401     220.84503      359.21451      307.28616      289.99213      287.44475      40936.37       25502.736      55           
   3346000  -7829.7224      112.10815     -7941.8305      0.61640401     222.44328      337.45985      304.00038      301.10965      290.96931      40409.194      25174.314      59           
   3347000  -7831.3561      112.0929      -7943.449       0.61640401     222.41304      329.08548      299.31887      307.03506      297.19772      40472.024      25213.456      56           
   3348000  -7828.1213      113.01143     -7941.1327      0.61640401     224.23557      320.00445      304.12545      307.49988      295.5387       40828.014      25435.232      63           
   3349000  -7829.8627      110.50996     -7940.3726      0.61640401     219.27219      281.98851      293.08926      307.45509      295.12119      40345.449      25134.602      56           
   3350000  -7832.5629      108.41966     -7940.9826      0.61640401     215.12464      321.98082      295.18044      289.11998      285.21649      40707.225      25359.983      48           
   3351000  -7831.617       110.06783     -7941.6848      0.61640401     218.39491      365.59687      290.77736      305.62832      285.02455      40441.688      25194.557      55           
   3352000  -7829.4807      110.36349     -7939.8442      0.61640401     218.98156      333.18775      301.93541      292.99662      284.08235      40796.161      25415.388      59           
   3353000  -7832.6197      111.00965     -7943.6293      0.61640401     220.26366      363.11818      301.01086      296.59731      289.61722      40438.558      25192.607      53           
   3354000  -7831.5392      112.18895     -7943.7281      0.61640401     222.60361      339.52894      303.94253      300.50634      296.43844      40467.316      25210.523      55           
   3355000  -7831.0971      111.5619      -7942.659       0.61640401     221.35943      324.85875      302.9627       298.27044      295.61955      40531.547      25250.538      54           
   3356000  -7831.2845      108.14604     -7939.4305      0.61640401     214.58173      247.33143      288.26968      298.17882      296.58149      40524.497      25246.146      52           
   3357000  -7834.8569      108.89422     -7943.7511      0.61640401     216.06627      284.67918      299.1455       286.3291       294.60993      40709.096      25361.148      65           
   3358000  -7829.211       111.83509     -7941.046       0.61640401     221.90149      297.54859      303.90624      300.6656       294.24284      40383.65       25158.4        71           
   3359000  -7832.2514      109.923       -7942.1744      0.61640401     218.10755      290.33046      296.75152      299.58196      285.01976      40840.99       25443.317      72           
   3360000  -7832.0756      109.3496      -7941.4252      0.61640401     216.96982      325.48674      297.01473      293.46526      280.97015      40279.325      25093.408      68           
   3361000  -7831.7713      108.96241     -7940.7337      0.61640401     216.20156      306.6711       290.88718      302.02121      276.52599      40577.809      25279.358      66           
   3362000  -7828.5861      114.5322      -7943.1183      0.61640401     227.25305      371.91057      314.57652      303.87472      275.97002      40668.031      25335.566      75           
   3363000  -7828.5937      112.40463     -7940.9983      0.61640401     223.03156      350.3144       305.47758      299.76987      290.37201      40648.684      25323.513      73           
   3364000  -7831.7657      110.80381     -7942.5695      0.61640401     219.85524      320.34886      303.71519      291.26904      295.53439      40428.629      25186.422      73           
   3365000  -7832.1014      112.86244     -7944.9639      0.61640401     223.93995      280.34346      306.98531      303.84219      298.84025      40380.793      25156.621      67           
   3366000  -7832.1057      109.90938     -7942.0151      0.61640401     218.08053      259.67708      293.42677      303.00655      297.44221      40951.045      25511.879      55           
   3367000  -7828.5094      112.15383     -7940.6632      0.61640401     222.53392      353.32441      302.35459      302.49958      293.00352      40303.627      25108.547      60           
   3368000  -7829.6971      111.61112     -7941.3082      0.61640401     221.45709      298.24461      303.58288      298.39886      298.40389      40557.289      25266.575      47           
   3369000  -7826.7899      113.63365     -7940.4235      0.61640401     225.47016      249.88756      304.96477      312.87036      301.41742      40484.69       25221.347      45           
   3370000  -7828.3555      112.3201      -7940.6756      0.61640401     222.86383      267.56562      306.64455      300.79785      297.35107      40578.82       25279.988      46           
   3371000  -7827.5858      112.64918     -7940.235       0.61640401     223.51679      332.61238      294.45929      318.13149      298.8784       40490.189      25224.772      48           
   3372000  -7831.2283      110.46842     -7941.6967      0.61640401     219.18977      272.48721      302.35336      291.42859      303.69361      40526.859      25247.618      46           
   3373000  -7829.9634      112.23894     -7942.2024      0.61640401     222.70281      284.22841      306.7867       298.27678      301.24398      40668.257      25335.707      50           
   3374000  -7827.604       112.12407     -7939.728       0.61640401     222.47489      276.34557      294.66464      315.19165      303.69698      40589.688      25286.759      45           
   3375000  -7827.9667      113.98059     -7941.9473      0.61640401     226.15857      299.55662      309.14879      306.91507      302.39156      40639.791      25317.972      55           
   3376000  -7829.3669      110.95099     -7940.3179      0.61640401     220.14727      247.08737      293.75977      307.91531      309.89053      40406.203      25172.45       55           
   3377000  -7833.5762      110.69342     -7944.2697      0.61640401     219.63621      321.26185      300.57223      294.38906      299.93223      40652.814      25326.086      56           
   3378000  -7831.4945      111.62211     -7943.1166      0.61640401     221.4789       271.96776      296.48588      309.89224      299.95603      40397.357      25166.94       48           
   3379000  -7835.0224      106.78721     -7941.8096      0.61640401     211.88555      296.78031      280.70376      297.25756      294.60624      40631.398      25312.744      50           
   3380000  -7830.9929      109.84539     -7940.8383      0.61640401     217.95356      366.63046      297.92815      292.4124       289.53284      40568.089      25273.303      51           
   3381000  -7833.2092      110.09108     -7943.3003      0.61640401     218.44105      290.93689      295.4888       301.68492      289.24333      40518.711      25242.541      50           
   3382000  -7830.7903      109.54272     -7940.333       0.61640401     217.353        345.72197      298.22551      289.45154      295.27979      40654.313      25327.019      48           
   3383000  -7833.902       110.66576     -7944.5678      0.61640401     219.58133      280.26175      304.94996      290.09006      298.64278      40334.297      25127.654      51           
   3384000  -7831.8184      108.74049     -7940.5589      0.61640401     215.76122      276.76405      288.63689      299.67395      300.22669      40611.361      25300.261      51           
   3385000  -7834.0887      108.21531     -7942.3041      0.61640401     214.71918      322.02047      291.57441      291.22704      291.8922       40581.468      25281.638      51           
   3386000  -7830.9844      109.92777     -7940.9121      0.61640401     218.11701      351.33252      293.63706      299.46634      293.82737      40515.671      25240.648      45           
   3387000  -7828.2766      111.3126      -7939.5892      0.61640401     220.86477      390.69087      296.60944      304.65462      290.71825      40460.451      25206.246      44           
   3388000  -7835.2271      109.23667     -7944.4637      0.61640401     216.74574      363.98949      295.54328      291.4957       289.20379      40544.07       25258.339      53           
   3389000  -7829.6629      111.89785     -7941.5607      0.61640401     222.02601      300.02935      314.06688      286.76714      290.35792      40765.146      25396.067      50           
   3390000  -7833.164       107.4323      -7940.5963      0.61640401     213.16554      319.28827      290.8087       287.17596      289.36413      40356.692      25141.606      53           
   3391000  -7831.9325      109.42976     -7941.3622      0.61640401     217.12886      298.54098      292.88382      300.72071      287.0559       40822.242      25431.637      54           
   3392000  -7828.3563      112.15275     -7940.509       0.61640401     222.53179      293.25271      299.50492      309.79483      294.4526       40351.612      25138.441      52           
   3393000  -7827.3174      111.31282     -7938.6302      0.61640401     220.86521      276.21501      300.59675      302.46511      295.22511      40755.743      25390.208      51           
   3394000  -7827.2463      114.48814     -7941.7344      0.61640401     227.16563      298.48371      310.00139      310.82171      296.90154      40371.563      25150.87       54           
   3395000  -7831.7098      108.77737     -7940.4872      0.61640401     215.83441      266.41173      291.22466      296.5591       300.09493      40501.706      25231.947      48           
   3396000  -7831.1125      111.19508     -7942.3076      0.61640401     220.63158      329.78645      299.30024      300.1716       298.2486       40542.736      25257.509      51           
   3397000  -7828.6936      111.35342     -7940.047       0.61640401     220.94577      268.40326      303.2608       299.2585       294.05482      40560.744      25268.727      43           
   3398000  -7833.5301      107.82912     -7941.3592      0.61640401     213.9529       237.77254      294.23289      288.3439       293.01345      40642.25       25319.504      54           
   3399000  -7831.7902      110.25069     -7942.0409      0.61640401     218.75775      244.21952      301.34791      296.259        288.6725       40180.064      25031.57       45           
   3400000  -7831.1151      109.75019     -7940.8653      0.61640401     217.76466      242.37987      298.73257      295.61599      293.81901      40832.495      25438.024      53           
   3401000  -7830.2646      110.44218     -7940.7068      0.61640401     219.13769      286.09575      303.62505      290.34003      297.51052      40341.348      25132.047      50           
   3402000  -7825.7535      111.46924     -7937.2227      0.61640401     221.17558      275.15236      308.5306       289.59425      304.26682      40601.225      25293.947      50           
   3403000  -7827.0448      112.24712     -7939.2919      0.61640401     222.71904      284.48996      308.64672      294.70581      304.53028      40553.398      25264.151      47           
   3404000  -7830.8096      111.22258     -7942.0321      0.61640401     220.68616      268.34088      295.40295      307.88553      303.22308      40693.118      25351.195      49           
   3405000  -7834.6863      108.27889     -7942.9652      0.61640401     214.84533      270.31947      294.27218      289.3822       295.54753      40559.094      25267.699      55           
   3406000  -7832.0119      110.23872     -7942.2506      0.61640401     218.734        347.40019      294.17479      301.65892      287.95416      40321.888      25119.923      63           
   3407000  -7833.9093      109.52337     -7943.4326      0.61640401     217.31462      290.90913      291.06473      304.42082      287.48653      40851.996      25450.173      55           
   3408000  -7829.7137      111.22726     -7940.941       0.61640401     220.69544      309.76074      303.47468      297.80349      287.46169      40341.561      25132.179      53           
   3409000  -7831.7416      110.61086     -7942.3524      0.61640401     219.4724       243.30267      300.69841      299.77838      291.78467      40675.918      25340.479      57           
   3410000  -7829.6643      111.19869     -7940.863       0.61640401     220.63876      266.60386      311.48228      285.73386      297.19918      40445.432      25196.889      62           
   3411000  -7833.6342      107.62351     -7941.2577      0.61640401     213.54494      316.34392      291.75689      284.94121      298.52499      40470.295      25212.379      62           
   3412000  -7829.9236      110.9927      -7940.9163      0.61640401     220.23003      336.35486      292.91257      307.44075      297.20221      40548.194      25260.909      68           
   3413000  -7832.1414      110.24754     -7942.3889      0.61640401     218.75149      283.45749      291.89156      307.71606      293.21421      40543.14       25257.76       64           
   3414000  -7834.0679      110.08827     -7944.1562      0.61640401     218.43547      298.21691      297.72516      298.29326      287.52323      40770.012      25399.098      57           
   3415000  -7830.7456      109.59396     -7940.3395      0.61640401     217.45466      302.81005      292.24131      304.24108      279.61069      40259.608      25081.124      68           
   3416000  -7830.0119      110.04075     -7940.0526      0.61640401     218.34118      285.84388      304.74998      290.29639      279.03011      40694.835      25352.264      71           
   3417000  -7826.3173      112.44661     -7938.7639      0.61640401     223.11485      305.6271       304.26823      306.32406      285.34196      40155.814      25016.462      69           
   3418000  -7831.3956      112.25588     -7943.6515      0.61640401     222.73641      351.56156      297.62379      312.39458      280.2322       40604.321      25295.875      77           
   3419000  -7828.6707      113.66558     -7942.3363      0.61640401     225.53351      350.97069      305.64783      310.51109      286.16845      40505.065      25234.04       64           
   3420000  -7834.0397      107.26764     -7941.3074      0.61640401     212.83883      288.41314      289.66635      288.79796      291.03893      40790.596      25411.921      52           
   3421000  -7830.4548      110.74697     -7941.2018      0.61640401     219.74246      339.86357      299.07979      300.4662       282.35293      40547.017      25260.176      53           
   3422000  -7830.7586      109.18849     -7939.9471      0.61640401     216.65015      319.49302      296.58431      294.01784      279.03296      40477.966      25217.158      63           
   3423000  -7830.1571      112.12534     -7942.2824      0.61640401     222.47741      337.9317       299.8994       310.8542       274.66728      40561.48       25269.186      68           
   3424000  -7828.8716      109.03684     -7937.9085      0.61640401     216.34925      351.25154      297.95977      290.49462      271.67114      40278.378      25092.817      64           
   3425000  -7830.5968      111.07692     -7941.6737      0.61640401     220.39713      261.65556      308.82486      294.39687      274.91226      40707.703      25360.281      61           
   3426000  -7828.4627      111.15575     -7939.6185      0.61640401     220.55356      288.25257      302.49843      302.24544      277.23664      40143.272      25008.648      66           
   3427000  -7826.5177      112.56418     -7939.0819      0.61640401     223.34813      338.59057      302.77538      307.01474      286.11085      40740.61       25380.781      69           
   3428000  -7830.8328      109.17325     -7940.006       0.61640401     216.61991      338.96696      290.43247      299.4114       287.94476      40550.438      25262.307      69           
   3429000  -7832.0163      109.52728     -7941.5436      0.61640401     217.32238      292.6072       296.23467      295.52861      292.09537      40381.571      25157.105      63           
   3430000  -7831.1507      109.55103     -7940.7017      0.61640401     217.36948      311.54203      291.74691      301.63018      290.25332      40548.552      25261.132      66           
   3431000  -7838.092       106.8219      -7944.9139      0.61640401     211.95439      288.08807      288.46447      288.21629      287.05823      40661.359      25331.409      67           
   3432000  -7831.044       109.19567     -7940.2397      0.61640401     216.66439      262.80858      295.43579      298.14368      283.25511      40544.787      25258.786      65           
   3433000  -7829.2446      109.33655     -7938.5812      0.61640401     216.94393      259.66746      296.03519      298.77143      281.63184      40504.193      25233.497      59           
   3434000  -7825.338       113.17982     -7938.5178      0.61640401     224.56967      299.66686      304.41808      312.35393      283.86912      40615.516      25302.849      67           
   3435000  -7828.9945      112.02518     -7941.0197      0.61640401     222.27867      270.60812      294.35304      320.13629      284.76361      40308.815      25111.779      58           
   3436000  -7830.2541      111.04091     -7941.2951      0.61640401     220.3257       280.71471      299.87022      302.6313       289.97922      40926.871      25496.819      56           
   3437000  -7829.0409      111.51154     -7940.5524      0.61640401     221.2595       334.9783       301.77672      300.77256      287.86953      40301.039      25106.935      61           
   3438000  -7830.9465      110.26172     -7941.2082      0.61640401     218.77963      295.42024      298.4977       298.74051      287.07953      40546.153      25259.637      55           
   3439000  -7831.4431      109.28993     -7940.7331      0.61640401     216.85142      271.66498      297.95762      293.85963      285.89693      40685.378      25346.373      59           
   3440000  -7828.483       110.64956     -7939.1326      0.61640401     219.54918      278.57754      300.7178       299.24418      287.17426      40541.647      25256.83       58           
   3441000  -7831.5506      108.73386     -7940.2844      0.61640401     215.74809      341.04143      292.14542      295.44965      282.98151      40552.369      25263.51       53           
   3442000  -7833.2224      110.75959     -7943.982       0.61640401     219.76751      290.16062      302.54595      296.45009      288.29842      40451.708      25200.799      55           
   3443000  -7833.0928      109.58729     -7942.6801      0.61640401     217.44145      260.14731      297.53613      296.43791      289.00369      40645.04       25321.242      53           
   3444000  -7831.5728      111.61786     -7943.1906      0.61640401     221.47047      307.96747      303.29413      300.45652      289.82923      40463.546      25208.174      55           
   3445000  -7831.8904      111.78324     -7943.6737      0.61640401     221.79861      299.50529      301.94859      303.99132      290.6274       40531.227      25250.339      54           
   3446000  -7826.1909      112.34742     -7938.5383      0.61640401     222.91805      356.07741      302.42172      306.2264       284.64426      40478.282      25217.355      52           
   3447000  -7828.48        112.22623     -7940.7062      0.61640401     222.67759      292.64406      306.63896      302.42727      283.7467       40448.203      25198.616      56           
   3448000  -7829.7259      110.08173     -7939.8076      0.61640401     218.42249      293.78523      295.27981      302.89792      284.50009      40544.198      25258.419      58           
   3449000  -7830.4793      111.91775     -7942.3971      0.61640401     222.0655       304.62627      303.25352      304.29252      284.0433       40384.487      25158.922      61           
   3450000  -7832.8211      110.75057     -7943.5717      0.61640401     219.7496       296.44544      305.23253      292.2986       286.97413      40875.237      25464.652      57           
   3451000  -7830.7294      110.86504     -7941.5944      0.61640401     219.97672      281.97457      308.34238      288.41827      290.58128      40387.038      25160.511      55           
   3452000  -7831.5802      111.55988     -7943.14        0.61640401     221.35542      281.02557      299.95828      306.96281      287.48287      40525.547      25246.8        55           
   3453000  -7832.8926      107.95991     -7940.8525      0.61640401     214.21241      279.90265      290.88304      293.44934      287.90802      40636.157      25315.709      60           
   3454000  -7831.7203      110.10669     -7941.8269      0.61640401     218.47202      286.88927      293.97761      304.74339      287.14054      40586.046      25284.49       56           
   3455000  -7829.4819      109.88533     -7939.3672      0.61640401     218.0328       305.2397       296.93704      296.80176      290.65734      40433.823      25189.658      59           
   3456000  -7830.5288      111.36399     -7941.8927      0.61640401     220.96675      312.49618      304.73936      298.29394      280.33506      40682.413      25344.525      58           
   3457000  -7833.4185      109.01784     -7942.4363      0.61640401     216.31154      262.02871      303.99629      282.91921      288.33571      40642.288      25319.528      65           
   3458000  -7831.4182      110.84205     -7942.2603      0.61640401     219.93111      274.69727      303.01929      296.87895      290.19927      40320.108      25118.815      62           
   3459000  -7831.2555      108.45637     -7939.7118      0.61640401     215.19748      320.86904      285.69713      302.54116      289.39369      40616.471      25303.444      49           
   3460000  -7828.5711      112.51769     -7941.0888      0.61640401     223.2559       361.46357      304.72035      304.10299      283.94128      40251.059      25075.798      51           
   3461000  -7830.8468      111.15927     -7942.0061      0.61640401     220.56054      328.07457      299.28766      303.16297      285.27325      40540.4        25256.053      54           
   3462000  -7829.1876      113.61855     -7942.8062      0.61640401     225.44021      277.99849      306.41535      314.11639      283.09949      40657.522      25329.018      52           
   3463000  -7831.9209      110.63287     -7942.5538      0.61640401     219.51606      318.10456      300.05718      300.29237      277.72567      40477.251      25216.713      56           
   3464000  -7829.2404      113.17234     -7942.4127      0.61640401     224.55483      317.75974      297.50675      321.67997      283.08741      40598.238      25292.086      63           
   3465000  -7832.1228      110.31433     -7942.4371      0.61640401     218.88402      301.18192      293.80148      306.79718      282.3706       40474.558      25215.035      65           
   3466000  -7829.8414      111.34539     -7941.1868      0.61640401     220.92983      267.50005      306.97086      297.33378      281.25556      40687.898      25347.942      63           
   3467000  -7829.2039      112.08918     -7941.2931      0.61640401     222.40565      287.3427       309.51664      296.10136      288.32116      40360.61       25144.047      56           
   3468000  -7830.4681      112.08845     -7942.5566      0.61640401     222.4042       283.30081      297.41614      313.35404      293.19387      40613.451      25301.563      63           
   3469000  -7833.5131      109.83425     -7943.3474      0.61640401     217.93144      261.49743      292.76324      303.80418      295.95426      40527.62       25248.092      58           
   3470000  -7830.7741      110.42463     -7941.1987      0.61640401     219.10287      279.98579      293.72347      306.46745      293.00091      40645.143      25321.307      55           
   3471000  -7832.788       110.14439     -7942.9324      0.61640401     218.54683      284.28543      304.95989      288.28689      289.28926      40634.268      25314.532      52           
   3472000  -7827.053       112.77401     -7939.8271      0.61640401     223.76448      295.27717      297.36097      319.18701      287.80265      40256.168      25078.981      65           
   3473000  -7829.968       111.12409     -7941.0921      0.61640401     220.49074      250.68305      306.32907      298.10806      279.49533      40613.62       25301.668      61           
   3474000  -7829.8441      112.19664     -7942.0407      0.61640401     222.61888      312.47098      307.73307      302.92834      269.29105      40516.594      25241.223      58           
   3475000  -7827.3873      112.55441     -7939.9417      0.61640401     223.32876      344.5963       301.13561      312.48193      273.67934      40789.475      25411.223      59           
   3476000  -7832.628       108.92997     -7941.558       0.61640401     216.1372       215.31213      297.36905      295.87208      283.05295      40376.045      25153.663      58           
   3477000  -7831.0714      112.69058     -7943.7619      0.61640401     223.59895      239.00182      299.76294      317.68401      287.5974       40694.796      25352.24       49           
   3478000  -7832.5786      109.1289      -7941.7075      0.61640401     216.5319       258.69114      292.89004      300.59093      287.18982      40444.408      25196.252      58           
   3479000  -7835.4127      110.43177     -7945.8444      0.61640401     219.11704      294.52157      293.7056       305.53407      294.01848      40554.642      25264.926      56           
   3480000  -7833.8498      109.50949     -7943.3593      0.61640401     217.28707      252.93163      298.80101      293.21407      292.99377      40740.751      25380.869      50           
   3481000  -7836.8946      107.18798     -7944.0825      0.61640401     212.68076      283.29755      282.5142       300.23064      286.57504      40512.462      25238.648      55           
   3482000  -7831.8186      109.83627     -7941.6548      0.61640401     217.93546      255.15963      302.15225      291.9705       287.05593      40617.837      25304.295      48           
   3483000  -7831.4422      111.7725      -7943.2147      0.61640401     221.77729      297.3432       305.31584      300.24836      285.79621      40399.741      25168.425      42           
   3484000  -7829.6921      112.94774     -7942.6399      0.61640401     224.1092       270.46587      310.60647      302.922        283.41049      40607.333      25297.752      49           
   3485000  -7827.23        111.09433     -7938.3243      0.61640401     220.43169      266.04314      308.93118      289.92536      290.38018      40558.139      25267.104      44           
   3486000  -7829.7068      112.40544     -7942.1122      0.61640401     223.03318      285.30354      302.32263      309.78836      287.022        40391.899      25163.539      50           
   3487000  -7829.3012      109.61848     -7938.9197      0.61640401     217.50333      268.72049      291.44714      304.68202      290.92075      40575.179      25277.72       45           
   3488000  -7830.672       111.47068     -7942.1426      0.61640401     221.17842      305.17811      303.51986      300.7136       283.78946      40505.404      25234.251      49           
   3489000  -7828.5231      112.01261     -7940.5357      0.61640401     222.25373      288.59687      307.67375      299.11869      284.94169      40807.971      25422.746      48           
   3490000  -7825.5026      113.44052     -7938.9432      0.61640401     225.08695      298.18899      309.56592      308.7852       276.11745      40333.006      25126.85       49           
   3491000  -7828.2378      110.93935     -7939.1772      0.61640401     220.12418      312.50456      307.72119      291.81564      277.59791      40772.653      25400.743      45           
   3492000  -7831.9681      108.68566     -7940.6538      0.61640401     215.65245      303.65175      298.41926      288.76739      278.71909      40203.239      25046.007      48           
   3493000  -7829.2463      109.79649     -7939.0428      0.61640401     217.85653      254.83811      301.45754      293.16419      285.17788      40538.467      25254.849      46           
   3494000  -7832.9556      109.5843      -7942.5399      0.61640401     217.4355       287.71948      300.745        289.45067      292.12753      40589.601      25286.705      50           
   3495000  -7829.9855      112.57709     -7942.5625      0.61640401     223.37376      343.47564      304.71882      303.76428      290.71737      40472.535      25213.774      50           
   3496000  -7829.9577      110.82894     -7940.7866      0.61640401     219.90511      316.60882      299.45861      300.14596      288.57569      40670.231      25336.936      54           
   3497000  -7832.3897      111.36753     -7943.7573      0.61640401     220.97377      283.38058      304.76829      298.74145      285.73678      40259.931      25081.325      59           
   3498000  -7827.7247      114.57965     -7942.3043      0.61640401     227.3472       278.93747      306.00684      321.98786      282.56034      40906.148      25483.909      55           
   3499000  -7832.197       111.02955     -7943.2265      0.61640401     220.30315      264.0845       303.23291      299.26225      287.08031      40200.176      25044.099      59           
   3500000  -7830.6627      110.29048     -7940.9532      0.61640401     218.83671      269.17424      299.89842      298.60079      286.52076      40644.423      25320.858      65           
   3501000  -7828.7187      111.46985     -7940.1886      0.61640401     221.17678      262.38402      299.44253      307.83439      289.43159      40358.44       25142.695      63           
   3502000  -7827.9818      111.66147     -7939.6433      0.61640401     221.557        256.82678      312.99398      286.91757      299.40932      40714.878      25364.75       60           
   3503000  -7826.4748      113.56305     -7940.0378      0.61640401     225.33008      308.73942      306.32828      306.41466      306.68352      40528.921      25248.902      60           
   3504000  -7830.6197      112.01164     -7942.6313      0.61640401     222.25179      325.6323       297.52634      306.9268       306.2207       40333.337      25127.056      62           
   3505000  -7830.2817      110.99113     -7941.2728      0.61640401     220.22692      308.30293      297.61543      299.62016      308.32655      40605.323      25296.5        61           
   3506000  -7831.5539      111.20074     -7942.7546      0.61640401     220.64282      341.54827      298.69652      299.02719      303.84297      40446.866      25197.783      54           
   3507000  -7833.9176      108.87116     -7942.7888      0.61640401     216.0205       254.97771      297.29669      292.53888      286.11242      40752.644      25388.278      59           
   3508000  -7833.4125      108.62914     -7942.0416      0.61640401     215.54029      267.96628      291.46267      299.21335      284.15744      40212.216      25051.6        61           
   3509000  -7832.0654      110.27691     -7942.3423      0.61640401     218.80976      241.64897      294.13864      309.01502      284.57671      40799.858      25417.692      60           
   3510000  -7829.7045      111.0831      -7940.7876      0.61640401     220.4094       261.88201      300.96879      303.63689      284.74795      40279.882      25093.754      57           
   3511000  -7830.281       110.52553     -7940.8066      0.61640401     219.30308      236.15193      298.3952       302.98323      291.3413       40670.168      25336.897      55           
   3512000  -7831.2874      111.369       -7942.6564      0.61640401     220.97668      298.01574      300.33209      303.20227      291.17451      40417.579      25179.538      59           
   3513000  -7825.0742      115.25462     -7940.3288      0.61640401     228.68647      315.97142      309.56148      315.81503      298.3848       40478.878      25217.726      67           
   3514000  -7828.7257      111.16846     -7939.8942      0.61640401     220.57877      313.75538      296.99425      304.2276       297.51578      40671.651      25337.821      60           
   3515000  -7830.6921      113.21072     -7943.9028      0.61640401     224.63099      257.72609      301.88174      314.2036       301.7637       40349.315      25137.01       53           
   3516000  -7831.6553      109.28965     -7940.9449      0.61640401     216.85086      266.98972      294.59971      296.96571      293.5178       40866.398      25459.145      47           
   3517000  -7827.8966      112.36964     -7940.2662      0.61640401     222.96213      274.50358      304.50266      306.85521      286.35552      40301.002      25106.912      47           
   3518000  -7829.7646      110.23622     -7940.0008      0.61640401     218.72903      267.81186      295.53991      304.73167      285.14118      40782.84       25407.089      44           
   3519000  -7830.1809      111.01461     -7941.1955      0.61640401     220.2735       277.63088      296.85078      307.94838      286.22705      40095.668      24978.992      43           
   3520000  -7833.3837      109.99075     -7943.3745      0.61640401     218.24197      276.14225      295.19109      301.00941      293.59034      40769.278      25398.641      51           
   3521000  -7833.7983      107.91819     -7941.7165      0.61640401     214.12963      309.05198      291.08283      288.50812      299.59845      40635.837      25315.509      44           
   3522000  -7829.5271      113.36876     -7942.8959      0.61640401     224.94458      344.63209      306.82013      303.14927      304.0305       40513.155      25239.08       51           
   3523000  -7834.5849      110.09535     -7944.6803      0.61640401     218.44952      377.18888      292.84938      300.60745      290.29157      40569.09       25273.927      58           
   3524000  -7832.209       108.7421      -7940.9511      0.61640401     215.76443      275.21577      288.48254      303.39932      286.98485      40503.884      25233.304      59           
   3525000  -7833.5397      111.64911     -7945.1888      0.61640401     221.53248      318.0774       300.83519      305.32086      283.2945       40625.897      25309.317      61           
   3526000  -7830.1562      110.28285     -7940.439       0.61640401     218.82157      292.63087      295.12906      304.86734      283.68706      40363.562      25145.886      64           
   3527000  -7831.1329      110.97825     -7942.1111      0.61640401     220.20136      268.07982      309.87802      290.16781      281.40126      40947.082      25509.41       67           
   3528000  -7831.0815      107.9981      -7939.0796      0.61640401     214.2882       315.11689      296.02031      284.39063      285.34542      40214.154      25052.807      71           
   3529000  -7828.0636      113.41082     -7941.4745      0.61640401     225.02802      271.07635      315.29637      298.68113      287.41072      40728.037      25372.949      63           
   3530000  -7832.5841      108.55939     -7941.1435      0.61640401     215.4019       286.75298      299.45069      284.544        288.83898      40533.79       25251.935      60           
   3531000  -7829.9223      111.99202     -7941.9143      0.61640401     222.21287      333.12439      304.84174      299.27373      289.78977      40285.163      25097.045      66           
   3532000  -7834.6226      110.80486     -7945.4274      0.61640401     219.85732      289.33635      298.86246      301.02794      293.5176       40673.505      25338.975      54           
   3533000  -7828.7617      112.47794     -7941.2397      0.61640401     223.17702      344.27692      297.42205      315.51074      281.36672      40356.859      25141.71       60           
   3534000  -7831.4147      111.09732     -7942.5121      0.61640401     220.43762      328.81684      299.01483      303.98997      282.10347      40760.595      25393.232      46           
   3535000  -7832.0358      109.44966     -7941.4854      0.61640401     217.16836      329.51475      294.05505      298.50607      283.19815      40158.899      25018.384      53           
   3536000  -7833.407       110.92974     -7944.3368      0.61640401     220.10511      302.19824      298.8785       301.66966      291.9314       40835.634      25439.979      53           
   3537000  -7829.582       110.31061     -7939.8926      0.61640401     218.87664      296.55772      289.48969      310.78315      294.24972      40296.456      25104.08       51           
   3538000  -7832.2599      109.83526     -7942.0951      0.61640401     217.93345      291.0706       295.38517      299.0744       292.47407      40536.935      25253.894      48           
   3539000  -7832.8414      109.05755     -7941.899       0.61640401     216.39034      339.28079      290.44144      296.48388      299.56351      40522.36       25244.815      52           
   3540000  -7828.9176      112.93374     -7941.8513      0.61640401     224.08141      291.47676      305.5827       305.14943      300.66934      40528.632      25248.722      53           
   3541000  -7829.7816      111.01716     -7940.7988      0.61640401     220.27857      274.67437      304.75047      293.00302      299.52134      40587.333      25285.292      49           
   3542000  -7830.5639      109.66172     -7940.2256      0.61640401     217.58912      288.68366      301.96027      285.97214      301.26657      40431.813      25188.405      56           
   3543000  -7833.8671      112.13883     -7946.0059      0.61640401     222.50417      291.9252       306.48144      298.92489      296.15143      40856.501      25452.979      53           
   3544000  -7832.6654      109.32082     -7941.9863      0.61640401     216.91271      242.09888      293.07838      300.93713      293.71237      40212.254      25051.624      55           
   3545000  -7830.1989      110.57011     -7940.769       0.61640401     219.39153      249.73401      299.63946      301.20175      288.64934      40937.607      25503.507      51           
   3546000  -7829.374       110.6955      -7940.0695      0.61640401     219.64032      285.53453      301.69955      296.62243      291.55152      40355.611      25140.932      51           
   3547000  -7830.9097      111.98723     -7942.897       0.61640401     222.20337      310.65277      304.48691      299.42928      297.81604      40598.51       25292.255      53           
   3548000  -7831.2407      109.25476     -7940.4954      0.61640401     216.78163      270.31443      297.14931      292.01335      296.86148      40460.14       25206.053      51           
   3549000  -7830.6229      111.02916     -7941.6521      0.61640401     220.30238      307.05764      306.52266      292.79776      283.8408       40340.871      25131.75       55           
   3550000  -7828.9419      111.28516     -7940.227       0.61640401     220.81032      305.14861      306.47356      293.7019       288.86236      40527.6        25248.079      50           
   3551000  -7826.4182      112.57388     -7938.9921      0.61640401     223.36739      358.62842      312.7773       291.67637      287.97467      40394.821      25165.36       51           
   3552000  -7830.7517      111.2603      -7942.012       0.61640401     220.761        322.26042      306.33919      293.03663      288.24378      40909.213      25485.818      50           
   3553000  -7832.1251      110.86217     -7942.9873      0.61640401     219.97104      359.73256      302.66441      293.16736      288.01958      40214.76       25053.184      60           
   3554000  -7830.139       111.26831     -7941.4073      0.61640401     220.77689      289.78406      301.01798      303.29903      285.28997      40594.432      25289.714      55           
   3555000  -7828.1224      112.78987     -7940.9123      0.61640401     223.79594      307.18148      300.00041      315.63744      284.0092       40282.384      25095.313      57           
   3556000  -7832.716       107.29732     -7940.0133      0.61640401     212.89771      253.33888      296.86186      281.26162      285.66565      40701.594      25356.475      49           
   3557000  -7826.9886      112.57583     -7939.5645      0.61640401     223.37125      290.52942      303.60065      308.91091      286.97871      40740.497      25380.711      56           
   3558000  -7832.333       109.17853     -7941.5115      0.61640401     216.63038      298.19885      288.25315      306.15727      285.75197      40209.521      25049.921      48           
   3559000  -7830.5297      113.3411      -7943.8708      0.61640401     224.8897       267.62946      305.21096      312.91016      288.61656      40663.295      25332.615      47           
   3560000  -7830.3152      112.5105      -7942.8257      0.61640401     223.24163      357.17066      304.31912      304.35908      286.46896      40233.966      25065.149      50           
   3561000  -7833.6117      105.99608     -7939.6078      0.61640401     210.31581      259.78443      285.59791      286.92388      289.41173      40766.087      25396.653      46           
   3562000  -7830.0456      110.03199     -7940.0776      0.61640401     218.3238       411.66269      297.06096      294.7718       288.25382      40269.258      25087.136      38           
   3563000  -7831.1965      110.12143     -7941.3179      0.61640401     218.50128      333.73578      296.91395      299.12317      285.19075      40792.093      25412.854      41           
   3564000  -7827.2488      111.95734     -7939.2061      0.61640401     222.14405      301.60395      308.6309       297.57194      281.83081      40468.654      25211.357      42           
   3565000  -7828.9535      112.20523     -7941.1587      0.61640401     222.63592      368.74096      301.24195      307.42312      284.80962      40435.547      25190.732      37           
   3566000  -7828.9026      110.7419      -7939.6445      0.61640401     219.7324       318.22913      298.6068       300.67107      289.62005      40690.884      25349.802      45           
   3567000  -7830.3089      109.65442     -7939.9633      0.61640401     217.57464      336.36197      296.89703      294.91079      285.75988      40349.027      25136.831      52           
   3568000  -7834.4162      107.84788     -7942.2641      0.61640401     213.99014      325.17064      290.75535      290.58993      287.63522      40751.502      25387.567      51           
   3569000  -7832.4994      109.71075     -7942.2102      0.61640401     217.68642      323.32722      300.13716      290.32393      288.12876      40207.28       25048.525      60           
   3570000  -7832.3593      109.40359     -7941.7629      0.61640401     217.07694      259.37232      296.93851      295.75369      291.17164      40773.059      25400.996      62           
   3571000  -7831.3269      111.4546      -7942.7815      0.61640401     221.14652      304.55336      302.00025      302.44476      284.86907      40290.734      25100.515      62           
   3572000  -7833.6186      110.12038     -7943.739       0.61640401     218.49919      302.73467      299.81937      296.81588      280.20389      40742.359      25381.871      63           
   3573000  -7833.1683      112.31949     -7945.4878      0.61640401     222.86263      301.50854      301.26529      311.17137      280.57665      40643.345      25320.187      68           
   3574000  -7832.1022      109.08991     -7941.1921      0.61640401     216.45455      292.08398      291.81648      301.28796      281.87074      40488.385      25223.649      70           
   3575000  -7828.0116      111.27473     -7939.2863      0.61640401     220.78962      266.92065      306.64375      297.53585      280.26239      40780.783      25405.808      61           
   3576000  -7831.7084      110.09671     -7941.8051      0.61640401     218.45221      261.89434      294.11829      305.34836      289.67057      40009.255      24925.158      61           
   3577000  -7831.2901      109.85206     -7941.1422      0.61640401     217.96678      349.90748      293.11641      301.3488       282.14287      40938.055      25503.787      66           
   3578000  -7832.5982      111.59919     -7944.1974      0.61640401     221.43341      309.34649      307.00162      295.30712      287.13927      40390.327      25162.56       62           
   3579000  -7828.7067      110.5804      -7939.2871      0.61640401     219.41196      408.29802      300.86073      291.52094      284.03027      40852.305      25450.365      63           
   3580000  -7833.4183      109.08944     -7942.5077      0.61640401     216.45361      305.97007      292.93805      297.84334      285.2063       40084.211      24971.854      71           
   3581000  -7836.1564      109.32255     -7945.4789      0.61640401     216.91615      318.32407      295.32162      294.62006      287.89616      40706.115      25359.291      70           
   3582000  -7829.2666      111.97412     -7941.2408      0.61640401     222.17734      275.71442      302.17673      306.74778      288.97062      40466.602      25210.078      58           
   3583000  -7832.6515      110.71988     -7943.3713      0.61640401     219.6887       348.32064      296.81237      301.21492      289.2652       40578.993      25280.096      58           
   3584000  -7829.8304      111.28345     -7941.1139      0.61640401     220.80694      305.27382      297.61269      306.10121      291.39692      40671.19       25337.533      62           
   3585000  -7828.2232      112.75107     -7940.9742      0.61640401     223.71896      368.31977      301.20556      308.99057      287.82108      40333.104      25126.911      61           
   3586000  -7831.2029      110.90503     -7942.108       0.61640401     220.05607      331.21526      294.1011       306.8718       292.36901      40693.364      25351.348      58           
   3587000  -7834.2447      108.1137      -7942.3584      0.61640401     214.51757      252.9076       291.46083      294.81517      290.05247      40170.749      25025.767      61           
   3588000  -7830.826       108.82323     -7939.6492      0.61640401     215.9254       323.4613       292.90869      295.56803      283.72275      40804.225      25420.412      55           
   3589000  -7833.323       109.09663     -7942.4196      0.61640401     216.46788      309.78727      296.1388       293.07549      285.2973       40234.312      25065.365      60           
   3590000  -7831.2043      109.0819      -7940.2862      0.61640401     216.43864      311.92218      293.92524      294.76579      289.86113      40647.005      25322.467      74           
   3591000  -7832.2401      109.20084     -7941.4409      0.61640401     216.67464      301.60514      291.18397      300.05668      291.85431      40531.654      25250.605      69           
   3592000  -7833.4826      108.97668     -7942.4593      0.61640401     216.22987      335.37697      293.42663      292.59731      291.98452      40458.218      25204.855      73           
   3593000  -7829.7503      111.99803     -7941.7484      0.61640401     222.22479      326.74126      300.36664      306.0628       290.70219      40662.003      25331.81       68           
   3594000  -7831.8137      111.87451     -7943.6882      0.61640401     221.97971      336.47905      304.84547      298.18818      288.87957      40360.536      25144.001      71           
   3595000  -7836.4904      107.96559     -7944.456       0.61640401     214.22368      324.50006      286.97199      298.10699      281.07944      40675.757      25340.379      67           
   3596000  -7832.2626      109.08157     -7941.3442      0.61640401     216.43799      315.44002      290.38897      301.93979      281.41341      40318.619      25117.887      67           
   3597000  -7832.9189      108.98512     -7941.904       0.61640401     216.24663      297.19271      297.12221      292.97638      278.35785      40854.513      25451.741      76           
   3598000  -7831.9261      110.76789     -7942.694       0.61640401     219.78398      289.68614      303.24234      297.84228      278.02119      40114.272      24990.582      77           
   3599000  -7829.0317      113.36905     -7942.4007      0.61640401     224.94515      310.21122      302.01551      316.22826      283.90973      40866.051      25458.929      82           
   3600000  -7830.3961      112.37476     -7942.7708      0.61640401     222.9723       252.96032      305.84666      306.93326      285.60171      40394.899      25165.409      75           
   3601000  -7831.3614      110.40198     -7941.7634      0.61640401     219.05794      287.65423      297.21333      302.99162      283.33369      40427.274      25185.577      68           
   3602000  -7828.9007      110.77766     -7939.6783      0.61640401     219.80336      317.31934      297.9506       301.96877      288.00848      40749.198      25386.131      58           
   3603000  -7833.4452      108.15049     -7941.5957      0.61640401     214.59056      292.03207      289.06581      296.2637       290.49692      40083.592      24971.469      64           
   3604000  -7834.2274      109.93075     -7944.1581      0.61640401     218.12294      309.60612      303.45175      286.85106      291.85986      40732.042      25375.443      65           
   3605000  -7834.6383      108.68185     -7943.3202      0.61640401     215.64488      306.97428      291.81699      295.61858      289.27818      40397.007      25166.722      59           
   3606000  -7831.8754      111.20041     -7943.0758      0.61640401     220.64217      302.37794      309.5644       289.31901      285.35901      40760.546      25393.201      53           
   3607000  -7835.3812      109.07401     -7944.4552      0.61640401     216.423        272.77293      294.85641      297.04918      285.03982      40290.762      25100.533      63           
   3608000  -7833.6268      108.40953     -7942.0364      0.61640401     215.10454      281.43148      292.25946      294.54921      288.68299      40640.887      25318.655      64           
   3609000  -7830.8783      109.07221     -7939.9505      0.61640401     216.41942      320.80151      289.81325      301.97115      284.61828      40482.117      25219.744      56           
   3610000  -7834.3454      108.31041     -7942.6558      0.61640401     214.90787      288.95994      294.05467      291.09897      286.70489      40534.013      25252.074      55           
   3611000  -7830.3329      111.93403     -7942.2669      0.61640401     222.0978       294.09842      310.91961      292.91182      286.91807      40598.84       25292.461      58           
   3612000  -7833.923       109.10611     -7943.0291      0.61640401     216.4867       271.17786      293.88975      296.81141      292.5884       40376.894      25154.192      53           
   3613000  -7832.1293      109.7752      -7941.9045      0.61640401     217.81428      326.39996      290.45029      303.95572      293.46635      40772.093      25400.394      54           
   3614000  -7828.2118      113.62724     -7941.8391      0.61640401     225.45745      352.73652      306.02896      307.93151      296.13005      40235.356      25066.016      49           
   3615000  -7831.2478      111.15845     -7942.4063      0.61640401     220.55891      290.1549       299.49312      301.56103      298.1237       40829.954      25436.441      51           
   3616000  -7829.9905      112.30738     -7942.2979      0.61640401     222.83861      263.24583      301.50712      308.78721      297.45491      40347.023      25135.582      54           
   3617000  -7831.0628      111.29941     -7942.3622      0.61640401     220.83861      258.1147       302.54112      301.1786       292.39731      40596.567      25291.044      55           
   3618000  -7828.4954      112.08632     -7940.5817      0.61640401     222.39998      306.33657      301.15025      308.35264      285.47701      40506.941      25235.209      53           
   3619000  -7829.2203      109.99369     -7939.214       0.61640401     218.2478       333.55159      300.41317      291.57261      288.01326      40511.42       25237.999      58           
   3620000  -7830.0708      111.01357     -7941.0843      0.61640401     220.27145      326.74021      297.74053      304.15928      285.90039      40714.282      25364.379      55           
   3621000  -7829.5197      111.21461     -7940.7343      0.61640401     220.67034      305.34087      296.89647      306.97853      290.2651       40242.998      25070.776      60           
   3622000  -7829.2381      112.07165     -7941.3097      0.61640401     222.37086      310.62534      304.39614      300.9849       293.925        40723.679      25370.233      64           
   3623000  -7831.8631      111.51278     -7943.3759      0.61640401     221.26197      254.32463      304.05908      300.52446      293.86161      40229.066      25062.097      59           
   3624000  -7827.7158      114.00876     -7941.7246      0.61640401     226.21445      319.97867      313.96855      301.66374      290.41033      41026.431      25558.843      56           
   3625000  -7828.2093      112.85132     -7941.0606      0.61640401     223.91787      274.96953      319.96905      286.46821      291.37616      40328.1        25123.794      65           
   3626000  -7827.0868      112.35053     -7939.4373      0.61640401     222.92421      303.75174      301.73108      308.45372      289.83052      40614.248      25302.059      62           
   3627000  -7823.5374      114.56713     -7938.1045      0.61640401     227.32236      269.16512      324.11381      293.4362       291.7913       40439.466      25193.173      62           
   3628000  -7830.0068      111.28083     -7941.2877      0.61640401     220.80174      288.39839      298.04749      306.51325      290.94597      40570.757      25274.965      56           
   3629000  -7833.6743      108.88157     -7942.5559      0.61640401     216.04116      243.14084      297.42185      291.79588      293.31518      40634.675      25314.785      67           
   3630000  -7833.8276      110.13922     -7943.9668      0.61640401     218.53656      278.72994      298.52992      296.80139      295.58118      40297.304      25104.608      68           
   3631000  -7828.7317      113.30109     -7942.0328      0.61640401     224.81031      340.62707      303.20166      310.42446      291.17041      40764.484      25395.654      73           
   3632000  -7832.6634      110.49321     -7943.1566      0.61640401     219.23896      341.85974      295.26476      302.7246       284.60137      40195.967      25041.476      69           
   3633000  -7831.2822      110.61052     -7941.8927      0.61640401     219.47172      359.55379      295.68317      301.15061      288.63925      40842.559      25444.294      65           
   3634000  -7831.0733      109.34555     -7940.4188      0.61640401     216.96177      315.23305      287.13427      303.10156      305.6851       40223.181      25058.431      63           
   3635000  -7828.2911      112.29853     -7940.5897      0.61640401     222.82104      310.35731      299.12858      310.96459      291.94256      40759.4        25392.487      69           
   3636000  -7828.5555      112.55079     -7941.1063      0.61640401     223.32158      346.45996      308.01024      296.0581       296.59687      40306.328      25110.23       71           
   3637000  -7826.9154      111.72406     -7938.6395      0.61640401     221.68119      267.49302      303.63921      301.94879      294.54056      40655.972      25328.053      64           
   3638000  -7827.8658      113.55548     -7941.4212      0.61640401     225.31506      272.49326      309.04075      307.61845      294.71915      40510.235      25237.261      73           
   3639000  -7830.2392      110.10324     -7940.3424      0.61640401     218.46518      299.39792      297.63499      296.98725      293.47215      40491.261      25225.44       74           
   3640000  -7832.7617      108.83141     -7941.5931      0.61640401     215.94164      274.49944      300.64092      284.5028       294.24499      40800.44       25418.054      72           
   3641000  -7834.4801      109.98229     -7944.4624      0.61640401     218.22519      295.35492      297.75218      296.20408      293.34276      40158.457      25018.109      71           
   3642000  -7834.229       109.07103     -7943.3001      0.61640401     216.41709      260.64421      293.83612      297.11477      295.96817      40794.573      25414.399      76           
   3643000  -7834.6484      107.72104     -7942.3694      0.61640401     213.73845      258.69243      294.90131      285.73672      294.21147      40367.043      25148.055      71           
   3644000  -7831.4499      109.01233     -7940.4622      0.61640401     216.30061      273.98045      295.24384      291.47741      304.47817      40684.678      25345.936      68           
   3645000  -7829.2737      110.91505     -7940.1888      0.61640401     220.07597      255.87012      301.85303      297.01794      303.68216      40403.435      25170.726      62           
   3646000  -7831.8365      108.99144     -7940.828       0.61640401     216.25917      283.84425      289.27327      301.67465      295.74833      40775.584      25402.569      74           
   3647000  -7830.0554      110.09285     -7940.1482      0.61640401     218.44457      282.4147       298.23364      297.72641      290.88595      40358.531      25142.751      66           
   3648000  -7824.9592      112.84791     -7937.8071      0.61640401     223.91111      297.80504      306.58862      306.73891      283.45314      40577.749      25279.321      65           
   3649000  -7830.99        111.4729      -7942.4629      0.61640401     221.18284      278.55898      302.65793      304.41559      279.43975      40703.233      25357.496      62           
   3650000  -7830.3384      109.56944     -7939.9079      0.61640401     217.40603      262.34504      302.46056      289.92267      284.74675      40190.848      25038.288      56           
   3651000  -7825.571       113.79657     -7939.3676      0.61640401     225.79343      271.75262      309.34945      311.08868      284.89486      40676.032      25340.55       65           
   3652000  -7832.6631      110.06645     -7942.7296      0.61640401     218.39219      289.66914      302.40446      293.34427      280.36941      40459.364      25205.569      58           
   3653000  -7833.8348      109.21037     -7943.0451      0.61640401     216.69356      261.29482      296.57323      296.26087      285.35276      40643.96       25320.57       67           
   3654000  -7831.8637      109.44656     -7941.3102      0.61640401     217.16221      295.57438      299.1827       292.88536      281.4102       40297.815      25104.926      70           
   3655000  -7829.3693      113.87676     -7943.2461      0.61640401     225.95255      286.85846      308.42001      312.49214      283.59464      40623.912      25308.08       65           
   3656000  -7830.7645      111.87846     -7942.6429      0.61640401     221.98755      266.74542      307.80714      299.04265      286.68949      40454.99       25202.844      70           
   3657000  -7833.1963      108.71909     -7941.9154      0.61640401     215.71877      316.0716       296.29849      288.99126      286.49997      40354.23       25140.072      75           
   3658000  -7835.2209      107.75966     -7942.9806      0.61640401     213.81509      248.69509      284.8804       301.85543      293.1131       40688.946      25348.595      70           
   3659000  -7830.0953      109.46765     -7939.563       0.61640401     217.20404      225.69928      294.35661      302.21568      291.69168      40169.668      25025.093      66           
   3660000  -7833.2925      109.76082     -7943.0534      0.61640401     217.78575      297.52346      297.00088      296.27867      290.28083      40592.973      25288.805      66           
   3661000  -7829.9642      113.84092     -7943.8051      0.61640401     225.88142      275.68202      311.78937      306.66398      289.57689      40288.51       25099.13       69           
   3662000  -7828.1156      111.32058     -7939.4362      0.61640401     220.88061      319.73469      299.98456      301.17332      294.60695      40644.281      25320.77       65           
   3663000  -7828.7949      112.07696     -7940.8718      0.61640401     222.3814       277.43957      298.56477      313.40552      287.17602      40483.777      25220.778      65           
   3664000  -7829.2728      111.20775     -7940.4805      0.61640401     220.65673      252.81425      300.75227      305.54793      285.06835      40647.095      25322.523      63           
   3665000  -7834.285       109.51148     -7943.7965      0.61640401     217.29101      274.29632      295.98004      296.65916      293.66973      40496.682      25228.817      70           
   3666000  -7828.7158      112.76033     -7941.4761      0.61640401     223.73733      284.44019      298.51557      315.08164      300.061        40373.788      25152.256      65           
   3667000  -7826.3392      114.13174     -7940.471       0.61640401     226.45846      318.36982      304.04799      313.15067      307.88001      40938.049      25503.783      68           
   3668000  -7830.1864      111.694       -7941.8804      0.61640401     221.62154      314.0818       294.26607      307.7679       316.09013      40189.649      25037.541      59           
   3669000  -7834.9203      109.36289     -7944.2832      0.61640401     216.99619      280.62658      292.01897      295.92861      314.94555      40736.464      25378.198      66           
   3670000  -7831.138       110.1339      -7941.2719      0.61640401     218.52602      282.23979      296.03281      296.51406      311.00633      40418.933      25180.382      62           
   3671000  -7832.0891      109.10466     -7941.1937      0.61640401     216.48382      264.50693      289.83225      299.10757      310.67235      40634.752      25314.833      61           
   3672000  -7828.6027      111.79527     -7940.398       0.61640401     221.82248      293.32752      302.23225      301.18942      302.16509      40457.903      25204.659      60           
   3673000  -7825.6024      114.94965     -7940.552       0.61640401     228.08136      334.48075      313.40456      306.19685      300.5016       40691.676      25350.296      61           
   3674000  -7828.2118      112.4483      -7940.6601      0.61640401     223.11821      333.54907      310.518        293.65013      291.50913      40625.835      25309.278      69           
   3675000  -7828.0018      113.08585     -7941.0876      0.61640401     224.38323      368.57998      310.93392      296.29115      287.42051      40536.684      25253.738      70           
   3676000  -7833.47        109.20652     -7942.6765      0.61640401     216.68593      312.93192      297.49604      290.20602      291.13934      40493.473      25226.819      63           
   3677000  -7832.0542      113.54503     -7945.5992      0.61640401     225.29433      279.90091      299.56189      319.7664       299.59352      40219.538      25056.161      62           
   3678000  -7831.9584      109.92437     -7941.8828      0.61640401     218.11026      308.0385       294.63226      297.68286      301.79768      40928.246      25497.676      63           
   3679000  -7831.5775      111.3248      -7942.9023      0.61640401     220.88897      242.06642      298.1301       308.15599      296.53501      40455.039      25202.875      62           
   3680000  -7831.1383      109.49138     -7940.6297      0.61640401     217.25113      257.92694      296.22576      297.46867      291.66037      40575.06       25277.646      64           
   3681000  -7828.6051      111.10328     -7939.7084      0.61640401     220.44945      262.60867      298.9076       305.27502      290.98632      40416.575      25178.913      57           
   3682000  -7825.7506      114.70689     -7940.4575      0.61640401     227.59967      254.25029      304.49938      324.36763      291.8515       40722.555      25369.533      59           
   3683000  -7827.7706      112.39518     -7940.1657      0.61640401     223.01282      298.88188      306.87905      300.10382      295.22389      40457.016      25204.107      56           
   3684000  -7827.988       113.61726     -7941.6053      0.61640401     225.43765      250.06019      309.81903      305.9601       301.48252      40519.077      25242.77       55           
   3685000  -7829.3803      111.09585     -7940.4762      0.61640401     220.4347       306.08652      303.10413      294.75357      298.47924      40777.704      25403.89       61           
   3686000  -7831.4185      112.11279     -7943.5313      0.61640401     222.45249      295.26712      302.36863      303.62196      300.92271      40381.71       25157.192      70           
   3687000  -7832.736       108.07397     -7940.81        0.61640401     214.43874      354.42969      286.7872       292.92663      300.66608      40593.442      25289.097      63           
   3688000  -7831.0665      110.44403     -7941.5106      0.61640401     219.14137      269.03721      294.33602      305.86426      295.42283      40332.705      25126.662      62           
   3689000  -7828.3813      113.05809     -7941.4394      0.61640401     224.32815      312.66045      307.2149       304.74428      290.6223       40709.381      25361.326      70           
   3690000  -7833.2917      108.67376     -7941.9655      0.61640401     215.62882      307.19156      289.74866      297.54441      293.01828      40318.055      25117.536      72           
   3691000  -7831.1142      110.76549     -7941.8796      0.61640401     219.7792       244.54348      293.92446      310.66058      295.99914      40735.59       25377.654      71           
   3692000  -7831.3233      108.93784     -7940.2611      0.61640401     216.15281      267.49278      297.94527      288.99294      296.91237      40339.113      25130.655      66           
   3693000  -7830.2983      110.76704     -7941.0653      0.61640401     219.78227      278.73671      307.77973      287.4729       296.48068      40602.683      25294.855      64           
   3694000  -7828.2397      113.14386     -7941.3835      0.61640401     224.49833      325.1712       306.32912      303.21633      302.83039      40654.183      25326.938      61           
   3695000  -7828.6432      112.16329     -7940.8065      0.61640401     222.55271      262.93111      305.99571      300.00542      302.71018      40481.743      25219.511      61           
   3696000  -7832.267       110.9557      -7943.2227      0.61640401     220.15662      338.10788      297.64545      299.39208      301.26964      40699.949      25355.45       59           
   3697000  -7828.8816      111.52162     -7940.4032      0.61640401     221.2795       299.03052      304.08425      295.50926      304.29085      40473.026      25214.08       56           
   3698000  -7831.4692      111.56079     -7943.03        0.61640401     221.35722      275.65896      297.74251      306.42786      304.57457      40735.283      25377.463      55           
   3699000  -7828.3947      112.94301     -7941.3377      0.61640401     224.0998       302.54448      301.39464      310.07463      304.12442      40332.301      25126.411      59           
   3700000  -7828.985       111.48391     -7940.4689      0.61640401     221.20468      301.67098      297.41733      305.51367      302.28159      40774.336      25401.792      58           
   3701000  -7829.7206      112.2531      -7941.9737      0.61640401     222.73091      288.87753      303.7839       301.76895      305.20096      40316.21       25116.386      55           
   3702000  -7831.3488      111.92316     -7943.272       0.61640401     222.07623      316.07603      302.67192      299.13655      306.98971      40811.527      25424.961      50           
   3703000  -7829.3635      113.49095     -7942.8545      0.61640401     225.18702      362.89075      307.89276      301.9731       303.09339      40600.318      25293.381      48           
   3704000  -7831.0848      112.0427      -7943.1275      0.61640401     222.31343      351.89398      308.44127      291.7539       298.14092      40479.687      25218.23       53           
   3705000  -7828.2457      114.12835     -7942.374       0.61640401     226.45175      354.48747      313.26892      299.36745      300.25952      40663.186      25332.547      58           
   3706000  -7831.8492      111.27244     -7943.1216      0.61640401     220.78509      329.25459      297.42508      303.88895      295.26624      40419.895      25180.981      64           
   3707000  -7830.7281      111.32572     -7942.0538      0.61640401     220.8908       341.21382      300.83326      298.26675      298.41608      40751.951      25387.847      51           
   3708000  -7829.6048      110.39249     -7939.9973      0.61640401     219.0391       351.83854      298.38455      293.69528      301.61179      40331.052      25125.633      49           
   3709000  -7832.1215      110.0397      -7942.1612      0.61640401     218.3391       305.59484      298.37332      290.29556      313.201        40783.195      25407.311      51           
   3710000  -7828.3821      111.12584     -7939.5079      0.61640401     220.49421      258.66507      294.95906      304.31899      317.10525      40279.623      25093.593      38           
   3711000  -7828.2659      112.57124     -7940.8372      0.61640401     223.36215      263.53715      303.10638      302.23053      320.84925      40803.575      25420.007      45           
   3712000  -7829.6953      108.18386     -7937.8792      0.61640401     214.65677      275.73338      290.33568      290.37257      311.13079      40574.408      25277.24       52           
   3713000  -7833.9367      110.35352     -7944.2902      0.61640401     218.96177      290.70268      290.63487      304.71117      314.47487      40537.602      25254.31       55           
   3714000  -7829.8101      112.22106     -7942.0311      0.61640401     222.66732      353.00213      298.92535      304.86338      308.53838      40653.068      25326.244      49           
   3715000  -7828.2418      111.91394     -7940.1557      0.61640401     222.05795      274.14981      303.19601      301.04881      303.63928      40471.768      25213.296      48           
   3716000  -7829.3896      109.59482     -7938.9844      0.61640401     217.45638      394.94233      286.82569      302.72303      304.91825      40781.075      25405.99       43           
   3717000  -7828.434       111.65302     -7940.0871      0.61640401     221.54024      298.18419      303.12261      296.09653      311.47429      40377.042      25154.284      43           
   3718000  -7828.3318      111.91529     -7940.2471      0.61640401     222.06063      293.1373       309.25842      289.04305      311.79193      40782.115      25406.638      45           
   3719000  -7827.8464      113.12214     -7940.9685      0.61640401     224.45524      288.1269       310.43164      295.24638      318.35437      40239.494      25068.593      56           
   3720000  -7832.3824      110.56795     -7942.9504      0.61640401     219.38724      287.27818      296.77334      296.62813      317.87092      40677.396      25341.4        58           
   3721000  -7828.8663      112.70967     -7941.5759      0.61640401     223.63681      347.01223      302.6295       299.66848      321.66638      40552.947      25263.87       61           
   3722000  -7826.418       112.66601     -7939.084       0.61640401     223.55018      281.98031      302.37293      302.50359      325.37145      40456.741      25203.935      57           
   3723000  -7827.5999      111.52377     -7939.1236      0.61640401     221.28378      268.69806      299.99473      298.73315      322.92809      40772.941      25400.923      55           
   3724000  -7830.2584      110.52296     -7940.7813      0.61640401     219.29798      266.50875      298.60109      294.80561      316.91771      40397.921      25167.291      57           
   3725000  -7833.1981      109.84087     -7943.039       0.61640401     217.94458      319.19931      292.24795      297.47669      311.86304      40665.237      25333.825      63           
   3726000  -7832.5316      109.40331     -7941.9349      0.61640401     217.07638      332.05705      294.33823      289.84832      312.88542      40313.599      25114.76       71           
   3727000  -7826.2291      113.91848     -7940.1476      0.61640401     226.03532      305.73108      298.84771      316.09021      323.99068      40666.533      25334.632      56           
   3728000  -7829.2499      113.80195     -7943.0519      0.61640401     225.8041       350.98947      294.81561      317.3859       329.53074      40441.891      25194.684      59           
   3729000  -7831.8132      111.91482     -7943.7281      0.61640401     222.05969      274.58344      300.44932      297.23615      335.95704      40580.119      25280.797      51           
   3730000  -7828.3269      114.39973     -7942.7267      0.61640401     226.99022      276.01256      305.19855      310.8561       327.47644      40584.473      25283.51       52           
   3731000  -7831.3895      111.83171     -7943.2212      0.61640401     221.89478      278.02322      302.49019      296.32043      325.15935      40509.309      25236.684      59           
   3732000  -7826.6585      112.8903      -7939.5488      0.61640401     223.99521      315.34691      301.11773      305.25955      320.83004      40630.196      25311.995      55           
   3733000  -7830.0039      112.71795     -7942.7219      0.61640401     223.65325      302.63208      305.14105      299.71477      316.65644      40325.749      25122.329      61           
   3734000  -7832.684       109.81739     -7942.5014      0.61640401     217.89801      279.29267      299.41745      287.02632      319.3388       40412.71       25176.504      60           
   3735000  -7829.9468      112.50435     -7942.4512      0.61640401     223.22942      240.48301      300.14303      308.05654      321.52002      40306.987      25110.641      62           
   3736000  -7833.7285      110.05382     -7943.7823      0.61640401     218.36711      240.20997      288.68143      305.52819      325.22155      40687.01       25347.389      58           
   3737000  -7829.0582      111.81707     -7940.8753      0.61640401     221.86573      246.41315      295.60489      307.86009      326.98756      40355.453      25140.834      61           
   3738000  -7828.1861      112.15751     -7940.3436      0.61640401     222.54122      305.62138      297.77972      303.94034      326.02259      40693.013      25351.129      58           
   3739000  -7833.5066      111.11944     -7944.6261      0.61640401     220.48151      319.06676      298.11         296.0121       321.98353      40594.832      25289.963      52           
   3740000  -7830.3215      110.98255     -7941.304       0.61640401     220.20989      332.98408      288.54946      308.50826      321.12283      40328.289      25123.912      61           
   3741000  -7827.7176      112.16967     -7939.8872      0.61640401     222.56536      317.26295      295.19621      308.70153      320.15088      40729.467      25373.839      58           
   3742000  -7831.0852      111.30073     -7942.3859      0.61640401     220.84121      335.1713       297.27253      298.2768       319.36799      40426.154      25184.88       55           
   3743000  -7829.4536      110.12685     -7939.5805      0.61640401     218.51202      303.01531      292.73744      298.31297      318.02778      40593.496      25289.131      54           
   3744000  -7832.5672      111.62264     -7944.1898      0.61640401     221.47994      279.88741      306.21656      291.40491      315.31496      40422.359      25182.516      56           
   3745000  -7830.0648      111.98201     -7942.0468      0.61640401     222.19301      237.18143      306.79369      296.12322      312.07764      40694.222      25351.882      53           
   3746000  -7830.8869      111.73332     -7942.6202      0.61640401     221.69956      277.1019       306.22287      293.5274       309.58021      40509.715      25236.937      47           
   3747000  -7829.2948      111.54119     -7940.836       0.61640401     221.31833      256.51576      306.96197      291.34417      313.66774      40502.508      25232.447      56           
   3748000  -7830.8172      112.54982     -7943.367       0.61640401     223.31965      296.22189      295.03945      313.83745      316.98627      40499.844      25230.788      67           
   3749000  -7826.9095      114.27299     -7941.1825      0.61640401     226.73872      357.8602       310.42852      300.37033      316.89441      40369.981      25149.885      60           
   3750000  -7830.9086      112.41617     -7943.3247      0.61640401     223.05446      324.88138      303.94641      295.30666      327.79981      40755.005      25389.749      58           
   3751000  -7827.4145      114.0242      -7941.4387      0.61640401     226.2451       265.63121      304.46588      310.04798      325.68813      40498.745      25230.103      50           
   3752000  -7830.3525      109.25282     -7939.6053      0.61640401     216.77778      283.34687      289.23553      296.34972      324.39327      40688.593      25348.375      52           
   3753000  -7831.4205      109.61362     -7941.0341      0.61640401     217.49369      313.38864      291.51223      293.25129      328.19328      40346.538      25135.28       53           
   3754000  -7830.1893      112.6903      -7942.8796      0.61640401     223.59838      376.11226      297.26019      305.41888      324.19369      40729.267      25373.714      56           
   3755000  -7831.2641      110.33261     -7941.5967      0.61640401     218.9203       326.536        292.3399       296.22935      329.8011       40473.165      25214.167      56           
   3756000  -7831.8446      112.30045     -7944.145       0.61640401     222.82486      326.50496      301.25626      298.30721      327.87283      40599.602      25292.935      55           
   3757000  -7827.084       112.07745     -7939.1615      0.61640401     222.38238      394.86868      290.44831      310.58058      324.61998      40520.347      25243.56       49           
   3758000  -7828.9471      114.26812     -7943.2153      0.61640401     226.72906      380.00857      297.03243      317.48153      324.93876      40373.625      25152.155      53           
   3759000  -7826.0474      114.68034     -7940.7277      0.61640401     227.54699      342.14215      301.83853      314.44797      328.04112      40822.996      25432.106      56           
   3760000  -7829.7557      110.81762     -7940.5733      0.61640401     219.88263      377.715        298.4218       290.23476      322.17167      40400.173      25168.694      51           
   3761000  -7831.0786      110.03213     -7941.1108      0.61640401     218.32408      336.65962      293.12355      294.10631      323.12728      40619.611      25305.4        46           
   3762000  -7824.8478      113.62466     -7938.4725      0.61640401     225.45232      328.85972      306.21235      302.53718      321.19214      40466.481      25210.003      43           
   3763000  -7827.6641      113.58483     -7941.2489      0.61640401     225.37329      302.94017      313.00587      292.26178      325.47999      40667.773      25335.405      52           
   3764000  -7831.9735      109.06048     -7941.0339      0.61640401     216.39615      240.04181      300.68961      278.64237      329.40696      40438.734      25192.717      52           
   3765000  -7829.1802      111.67092     -7940.8511      0.61640401     221.57575      322.70165      300.81988      293.16512      332.82909      40608.295      25298.351      52           
   3766000  -7825.2013      113.90577     -7939.1071      0.61640401     226.01011      296.03239      303.5536       307.28321      332.9522       40682.564      25344.619      51           
   3767000  -7829.9157      111.52479     -7941.4404      0.61640401     221.2858       344.41338      292.65175      303.09753      331.84857      40288.041      25098.838      61           
   3768000  -7831.863       111.62475     -7943.4877      0.61640401     221.48414      310.68285      295.70032      302.03969      329.33228      40704.726      25358.426      59           
   3769000  -7824.759       113.94741     -7938.7064      0.61640401     226.09272      361.26359      300.5486       310.45362      325.03918      40411.017      25175.449      60           
   3770000  -7830.1212      111.33585     -7941.4571      0.61640401     220.9109       335.10745      290.28169      308.32145      322.43719      40751.466      25387.544      57           
   3771000  -7831.4045      110.48005     -7941.8845      0.61640401     219.21285      325.83773      295.79153      293.42128      324.77147      40350.643      25137.838      68           
   3772000  -7828.7522      112.34744     -7941.0996      0.61640401     222.91809      241.27024      308.04655      294.78641      323.33004      40628.791      25311.119      63           
   3773000  -7829.889       113.23556     -7943.1246      0.61640401     224.68029      251.36988      305.65065      304.05327      325.04264      40481.53       25219.378      64           
   3774000  -7828.091       112.38595     -7940.477       0.61640401     222.9945       253.0508       296.8132       309.72922      330.65746      40484.596      25221.288      69           
   3775000  -7831.4583      111.00579     -7942.464       0.61640401     220.256        312.9395       296.69066      298.00664      320.07707      40591.554      25287.922      72           
   3776000  -7832.5894      110.64356     -7943.233       0.61640401     219.53728      304.17338      298.40773      292.71983      322.473        40446.46       25197.53       69           
   3777000  -7830.7088      111.82697     -7942.5358      0.61640401     221.88539      364.55169      298.8117       297.51675      319.62121      40741.485      25381.326      73           
   3778000  -7830.1555      110.26307     -7940.4185      0.61640401     218.7823       309.81098      295.70295      292.95959      324.80263      40222.175      25057.804      74           
   3779000  -7830.7599      111.95413     -7942.7141      0.61640401     222.13769      312.41883      303.04562      295.74037      320.0902       40891.755      25474.942      65           
   3780000  -7829.0858      110.30295     -7939.3887      0.61640401     218.86144      265.55514      299.78663      291.2244       319.622        40429.283      25186.829      66           
   3781000  -7830.1085      110.89475     -7941.0032      0.61640401     220.03568      244.87593      302.15952      292.7783       320.29532      40598.186      25292.053      57           
   3782000  -7831.0388      111.98394     -7943.0227      0.61640401     222.19684      304.01079      292.95085      312.95984      314.31255      40594.733      25289.902      60           
   3783000  -7832.7081      111.20443     -7943.9125      0.61640401     220.65015      288.05995      304.79265      290.52739      313.67638      40434.192      25189.887      63           
   3784000  -7830.5912      110.26183     -7940.8531      0.61640401     218.77986      262.04428      301.74653      288.33641      318.50589      40703.916      25357.921      62           
   3785000  -7831.9062      111.56393     -7943.4701      0.61640401     221.36346      330.39294      301.275        295.62547      315.2858       40403.16       25170.555      58           
   3786000  -7833.5028      108.65091     -7942.1537      0.61640401     215.58349      264.16189      286.72796      296.14757      325.53012      40834.85       25439.491      50           
   3787000  -7829.4701      111.65888     -7941.129       0.61640401     221.55187      287.75701      290.07819      312.1531       327.25001      40323.472      25120.911      47           
   3788000  -7831.5406      111.09065     -7942.6312      0.61640401     220.42438      345.81647      297.8278       296.56593      315.66833      40831.751      25437.561      51           
   3789000  -7828.9692      112.02702     -7940.9962      0.61640401     222.2823       265.98776      301.39853      301.65716      317.83533      40606.292      25297.103      52           
   3790000  -7826.6128      113.59122     -7940.204       0.61640401     225.38598      277.40805      300.98355      314.36749      313.66905      40623.232      25307.656      48           
   3791000  -7829.3736      111.71694     -7941.0905      0.61640401     221.66706      242.55575      296.90694      308.81826      311.14886      40503.347      25232.97       52           
   3792000  -7832.0845      110.7725      -7942.857       0.61640401     219.79311      274.45244      294.96331      303.21942      310.1668       40381.603      25157.125      50           
   3793000  -7829.7287      110.40623     -7940.1349      0.61640401     219.06636      314.47402      292.85515      302.79036      305.62065      40787.372      25409.913      51           
   3794000  -7828.8144      111.00003     -7939.8144      0.61640401     220.24457      393.03555      298.15948      295.84827      304.97925      40410.601      25175.19       49           
   3795000  -7832.304       111.47617     -7943.7801      0.61640401     221.18932      335.57066      300.2006       296.43577      315.1896       40863.985      25457.642      55           
   3796000  -7827.0739      111.78041     -7938.8543      0.61640401     221.79299      292.96575      305.97605      293.26279      311.1821       40402.016      25169.842      54           
   3797000  -7827.6759      111.51499     -7939.1909      0.61640401     221.26635      299.57328      304.16758      293.68049      311.12557      40672.447      25338.316      58           
   3798000  -7826.4369      114.03744     -7940.4743      0.61640401     226.27136      292.28931      311.32013      302.7754       309.28379      40268.237      25086.5        55           
   3799000  -7827.7597      111.71321     -7939.4729      0.61640401     221.65966      302.02546      309.4313       288.87051      304.05765      40885.038      25470.758      54           
   3800000  -7830.3356      109.98918     -7940.3248      0.61640401     218.23887      286.95992      294.89369      298.32384      304.23483      40568.822      25273.76       56           
   3801000  -7826.6505      114.67274     -7941.3233      0.61640401     227.5319       275.91358      315.08359      303.26714      307.43433      40440.915      25194.076      55           
   3802000  -7830.5388      112.05412     -7942.593       0.61640401     222.33608      355.13715      297.96461      303.9327       311.64427      40517.087      25241.529      53           
   3803000  -7829.0041      113.16673     -7942.1708      0.61640401     224.54371      303.08076      302.94905      307.2649       312.74188      40452.848      25201.51       55           
   3804000  -7829.8971      110.2805      -7940.1776      0.61640401     218.8169       304.37662      295.96498      295.39804      314.74664      40703.399      25357.599      52           
   3805000  -7831.8607      111.01728     -7942.878       0.61640401     220.2788       340.95002      302.661        289.85114      311.66177      40272.662      25089.257      54           
   3806000  -7830.6147      111.04381     -7941.6585      0.61640401     220.33145      313.09103      299.4896       298.1746       303.61415      40924.332      25495.237      56           
   3807000  -7827.2166      113.94898     -7941.1656      0.61640401     226.09584      376.02671      307.48911      305.19884      302.90397      40232.149      25064.018      52           
   3808000  -7826.7692      113.87532     -7940.6445      0.61640401     225.94968      310.04334      305.60891      309.63414      307.31757      40663.567      25332.785      51           
   3809000  -7826.1099      112.9991      -7939.109       0.61640401     224.2111       309.66907      301.94708      307.63644      310.81893      40544.237      25258.444      57           
   3810000  -7826.3077      111.91354     -7938.2213      0.61640401     222.05714      281.92266      302.92028      298.2585       315.56815      40569.506      25274.186      53           
   3811000  -7828.882       111.48865     -7940.3706      0.61640401     221.21408      257.94183      297.40726      306.46078      307.53334      40550.195      25262.156      53           
   3812000  -7822.3701      114.55874     -7936.9288      0.61640401     227.3057       256.90094      310.04197      309.27774      313.46887      40489.478      25224.33       52           
   3813000  -7821.2383      117.39144     -7938.6298      0.61640401     232.92632      274.72223      323.50647      309.96566      311.39518      40598.59       25292.305      48           
   3814000  -7827.1899      112.98087     -7940.1708      0.61640401     224.17492      243.68542      311.15421      296.6247       311.75952      40424.57       25183.893      49           
   3815000  -7825.8766      112.75513     -7938.6318      0.61640401     223.72703      294.33522      300.31276      310.49268      304.90119      40724.702      25370.87       53           
   3816000  -7829.5655      112.20489     -7941.7703      0.61640401     222.63524      298.36556      306.36972      296.70668      306.73673      40248.549      25074.234      59           
   3817000  -7825.2378      113.03412     -7938.2719      0.61640401     224.28059      270.64434      306.02874      303.92148      311.55065      40572.356      25275.962      61           
   3818000  -7831.7427      109.63754     -7941.3802      0.61640401     217.54115      277.64636      291.51914      299.14717      312.63953      40711.659      25362.745      54           
   3819000  -7827.8588      113.86538     -7941.7242      0.61640401     225.92995      231.0812       303.72352      314.68284      316.59518      40493.689      25226.953      61           
   3820000  -7830.1938      112.76212     -7942.9559      0.61640401     223.74089      283.11084      307.29378      297.81639      316.94475      40654.317      25327.022      55           
   3821000  -7829.2616      111.69485     -7940.9565      0.61640401     221.62323      315.94913      300.57875      300.43256      307.34725      40322.301      25120.181      54           
   3822000  -7829.3469      111.39443     -7940.7413      0.61640401     221.02714      300.63385      304.03061      293.06943      310.4089       40805.91       25421.462      61           
   3823000  -7828.0298      113.38441     -7941.4142      0.61640401     224.97563      306.79231      312.09045      295.74524      310.11847      40368.578      25149.011      56           
   3824000  -7828.2001      110.83876     -7939.0389      0.61640401     219.92458      276.45768      297.38911      299.53914      312.57776      40817.451      25428.652      56           
   3825000  -7829.7166      111.03277     -7940.7493      0.61640401     220.30954      280.61419      297.70344      300.52328      311.5731       40380.939      25156.711      55           
   3826000  -7826.172       113.6656      -7939.8376      0.61640401     225.53357      358.81036      299.36452      313.91578      311.47421      40639.568      25317.834      53           
   3827000  -7829.0809      108.81253     -7937.8934      0.61640401     215.90417      323.31211      297.22832      283.37494      307.41783      40337.417      25129.598      52           
   3828000  -7827.1945      113.93809     -7941.1326      0.61640401     226.07422      271.99204      300.33201      318.33142      313.21008      40692.883      25351.048      50           
   3829000  -7827.8138      112.52287     -7940.3367      0.61640401     223.26618      224.41855      299.173        310.59191      316.62792      40584.181      25283.328      47           
   3830000  -7831.5153      110.24747     -7941.7628      0.61640401     218.75135      275.59361      299.93188      289.91314      318.60801      40398.415      25167.599      57           
   3831000  -7828.9718      111.21174     -7940.1836      0.61640401     220.66466      261.11812      300.33905      297.80234      316.41117      40781.328      25406.148      54           
   3832000  -7830.5865      110.29042     -7940.8769      0.61640401     218.83657      299.52772      299.75801      292.4919       305.03539      40406.088      25172.379      54           
   3833000  -7828.8899      111.23252     -7940.1224      0.61640401     220.70587      274.8599       299.78036      299.78197      309.29006      40857.927      25453.868      55           
   3834000  -7832.1719      110.10634     -7942.2783      0.61640401     218.47133      292.45703      297.45956      294.63396      306.0344       40236.136      25066.501      55           
   3835000  -7828.4156      111.03998     -7939.4555      0.61640401     220.32384      233.04089      292.56266      310.07458      310.7427       40656.891      25328.625      43           
   3836000  -7830.4558      110.39649     -7940.8523      0.61640401     219.04704      336.59295      297.81664      292.73478      311.26277      40498.601      25230.013      51           
   3837000  -7829.0507      110.26142     -7939.3121      0.61640401     218.77903      249.06798      299.96198      291.33298      316.40282      40620.393      25305.888      48           
   3838000  -7827.658       112.80514     -7940.4632      0.61640401     223.82625      307.58222      299.37198      308.96269      315.35214      40452.065      25201.022      44           
   3839000  -7828.1666      112.39236     -7940.559       0.61640401     223.00721      324.25409      295.94664      312.18605      308.05115      40589.704      25286.769      42           
   3840000  -7826.3136      111.1534      -7937.467       0.61640401     220.54889      386.23947      296.66966      299.93597      303.67606      40680.136      25343.107      48           
   3841000  -7829.6494      111.69727     -7941.3466      0.61640401     221.62803      351.24039      297.56281      304.13159      303.75315      40303.52       25108.481      51           
   3842000  -7827.9811      111.24428     -7939.2254      0.61640401     220.72922      362.65388      299.84606      296.44025      305.35459      40835.264      25439.749      50           
   3843000  -7825.9122      113.33915     -7939.2514      0.61640401     224.88583      336.54791      302.11394      309.30397      308.53687      40579.113      25280.171      49           
   3844000  -7825.5075      113.31085     -7938.8183      0.61640401     224.82968      346.40255      308.17504      299.97216      304.97176      40508.77       25236.348      61           
   3845000  -7831.1079      111.56384     -7942.6717      0.61640401     221.36328      274.77052      301.25187      300.71481      306.99437      40336.773      25129.197      57           
   3846000  -7827.3359      114.00943     -7941.3453      0.61640401     226.21578      248.71347      312.4411       304.99885      302.13292      40665.69       25334.107      56           
   3847000  -7829.7295      109.59845     -7939.3279      0.61640401     217.46358      290.38827      294.35692      297.0724       300.14458      40443.885      25195.926      63           
   3848000  -7831.4763      110.84143     -7942.3177      0.61640401     219.92988      372.16177      299.20838      293.93948      300.06138      40569.546      25274.211      68           
   3849000  -7827.5314      113.26237     -7940.7938      0.61640401     224.73347      381.28441      301.34339      308.81184      299.92791      40618.447      25304.676      63           
   3850000  -7828.6866      112.44057     -7941.1272      0.61640401     223.10288      339.67463      306.36414      296.24576      306.63794      40381.115      25156.821      57           
   3851000  -7828.5765      112.95813     -7941.5346      0.61640401     224.12981      339.21326      300.44291      307.98966      311.41903      40833.746      25438.803      52           
   3852000  -7824.9373      114.7341      -7939.6714      0.61640401     227.65367      393.18677      303.12695      314.96883      309.87348      40457.969      25204.7        53           
   3853000  -7829.8329      115.28936     -7945.1222      0.61640401     228.75539      301.80805      310.99972      310.7232       315.41127      40529.838      25249.473      59           
   3854000  -7831.3948      110.67359     -7942.0684      0.61640401     219.59685      301.06278      294.18673      303.31583      306.165        40416.275      25178.725      62           
   3855000  -7827.5929      109.85622     -7937.4491      0.61640401     217.97505      283.41041      302.57426      287.15836      300.01746      40670.559      25337.14       59           
   3856000  -7830.3679      110.22339     -7940.5912      0.61640401     218.70358      268.35882      305.59461      286.63727      299.55018      40523.545      25245.553      67           
   3857000  -7828.8071      111.75525     -7940.5624      0.61640401     221.74307      301.32743      301.67157      300.57813      305.13531      40562.742      25269.972      69           
   3858000  -7829.4688      114.45589     -7943.9247      0.61640401     227.10164      323.18649      312.30731      302.75751      308.83056      40691.901      25350.436      68           
   3859000  -7830.2559      111.98716     -7942.2431      0.61640401     222.20323      298.97061      298.72048      304.51393      315.80932      40390.862      25162.893      75           
   3860000  -7836.1652      108.27324     -7944.4385      0.61640401     214.83412      307.15763      291.00481      286.95574      317.52051      40637.685      25316.66       74           
   3861000  -7832.3856      110.73419     -7943.1198      0.61640401     219.71709      321.78961      297.12979      295.35755      317.81124      40374.311      25152.582      71           
   3862000  -7828.532       114.65207     -7943.184       0.61640401     227.4909       339.34417      308.48315      308.42346      311.4859       40696.354      25353.21       62           
   3863000  -7831.789       111.56602     -7943.355       0.61640401     221.3676       284.02167      294.03267      312.76346      299.98438      40498.207      25229.768      62           
   3864000  -7831.382       110.7201      -7942.1021      0.61640401     219.68914      289.67153      300.86865      297.35833      293.85576      40613.522      25301.607      60           
   3865000  -7830.6472      107.74635     -7938.3936      0.61640401     213.78867      269.10928      297.72014      280.82956      293.46219      40502.275      25232.302      56           
   3866000  -7830.2669      108.57523     -7938.8422      0.61640401     215.43332      250.19343      294.24114      292.87875      294.02167      40666.921      25334.874      50           
   3867000  -7830.3987      108.96064     -7939.3594      0.61640401     216.19805      278.65125      297.71081      287.90937      300.05584      40443.078      25195.423      58           
   3868000  -7830.6644      111.18381     -7941.8483      0.61640401     220.60923      253.99452      298.03156      303.80313      306.95882      40571.481      25275.417      57           
   3869000  -7829.8252      114.04249     -7943.8677      0.61640401     226.28138      291.41314      315.94416      296.6461       306.77725      40731.174      25374.902      60           
   3870000  -7832.0105      110.4883      -7942.4988      0.61640401     219.22922      259.41046      300.06886      294.54771      308.81271      40349.589      25137.181      51           
   3871000  -7831.4948      108.87208     -7940.3668      0.61640401     216.02233      279.45954      291.12448      296.08074      303.44742      40533.449      25251.723      51           
   3872000  -7831.3234      110.58861     -7941.912       0.61640401     219.42825      291.61431      295.93025      301.79238      301.17667      40497.747      25229.481      53           
   3873000  -7827.3247      112.49519     -7939.8199      0.61640401     223.21125      245.30963      301.67184      310.66289      296.96442      40632.301      25313.306      48           
   3874000  -7830.8036      111.95061     -7942.7542      0.61640401     222.1307       308.22593      295.46931      313.41924      295.06732      40787.755      25410.151      50           
   3875000  -7825.5588      113.03678     -7938.5956      0.61640401     224.28586      294.04177      298.14973      319.25848      291.04746      40375.997      25153.633      55           
   3876000  -7829.4894      109.80719     -7939.2965      0.61640401     217.87776      330.02026      293.70883      296.49609      304.40382      40570.552      25274.837      54           
   3877000  -7832.0385      109.84374     -7941.8822      0.61640401     217.95028      235.17136      292.94279      301.75159      309.44558      40575.282      25277.785      58           
   3878000  -7826.8447      115.65129     -7942.496       0.61640401     229.47354      321.15085      315.33208      308.90617      302.79578      40549.484      25261.713      59           
   3879000  -7829.9505      113.75203     -7943.7025      0.61640401     225.70505      339.94639      307.86206      303.11141      309.60136      40502.433      25232.4        58           
   3880000  -7829.4942      111.22483     -7940.719       0.61640401     220.69061      311.86052      302.43414      294.69756      305.79769      40444.819      25196.508      54           
   3881000  -7829.0435      111.43077     -7940.4743      0.61640401     221.09925      311.20225      297.04589      305.41485      301.33886      40676.484      25340.831      54           
   3882000  -7828.9305      111.29319     -7940.2237      0.61640401     220.82626      341.65555      305.50641      290.58841      298.83025      40500.942      25231.472      60           
   3883000  -7832.4077      108.49312     -7940.9008      0.61640401     215.2704       346.26399      292.00618      291.16071      291.52331      40424.54       25183.874      59           
   3884000  -7830.277       110.83762     -7941.1146      0.61640401     219.92233      311.61014      294.1992       307.00321      293.96083      40469.218      25211.708      53           
   3885000  -7832.3618      111.47346     -7943.8353      0.61640401     221.18395      264.34429      303.50062      298.51143      300.52456      40691.793      25350.369      48           
   3886000  -7831.1749      109.97944     -7941.1543      0.61640401     218.21954      281.11027      291.37406      303.71664      304.13012      40414.127      25177.387      52           
   3887000  -7828.6773      112.84879     -7941.5261      0.61640401     223.91285      303.30226      304.32669      305.08223      303.58756      40600.73       25293.638      57           
   3888000  -7833.0833      110.13697     -7943.2203      0.61640401     218.5321       258.56965      303.33029      285.32415      314.65356      40581.098      25281.407      47           
   3889000  -7830.4782      111.15474     -7941.633       0.61640401     220.55156      356.43387      294.40451      303.24273      308.26278      40593.16       25288.922      53           
   3890000  -7830.7668      108.57193     -7939.3387      0.61640401     215.42678      246.58388      291.86277      293.84443      305.88464      40394.216      25164.983      56           
   3891000  -7832.8219      110.31176     -7943.1337      0.61640401     218.87891      335.80768      299.73091      292.73141      297.67644      40685.125      25346.215      51           
   3892000  -7829.7949      112.05316     -7941.848       0.61640401     222.33418      382.88445      303.4661       298.5352       293.72248      40638.763      25317.332      56           
   3893000  -7826.931       113.82312     -7940.7542      0.61640401     225.8461       316.78258      303.7363       315.76549      290.45185      40381.287      25156.929      58           
   3894000  -7831.8987      109.84116     -7941.7399      0.61640401     217.94516      321.32022      293.14134      301.94233      287.72036      40659.882      25330.489      59           
   3895000  -7831.4699      111.34032     -7942.8102      0.61640401     220.91977      301.437        306.18046      293.78027      292.3835       40469.673      25211.991      58           
   3896000  -7829.7632      111.55356     -7941.3168      0.61640401     221.34288      324.15109      301.72272      299.48859      296.99974      40534.273      25252.236      65           
   3897000  -7832.0735      109.48517     -7941.5587      0.61640401     217.23882      267.69427      293.1937       300.21714      296.94857      40428.195      25186.151      68           
   3898000  -7831.4605      110.01265     -7941.4732      0.61640401     218.28543      317.68338      295.6439       299.17081      288.98344      40698.213      25354.368      68           
   3899000  -7828.3639      111.7577      -7940.1216      0.61640401     221.74794      251.64014      301.51538      305.42664      299.13512      40377.998      25154.88       67           
   3900000  -7830.3011      112.90579     -7943.2069      0.61640401     224.02596      330.33641      305.57719      304.01468      294.0741       40680.508      25343.338      70           
   3901000  -7831.2578      112.06805     -7943.3258      0.61640401     222.36372      318.25556      299.8066       307.93495      291.10599      40593.791      25289.315      67           
   3902000  -7829.4439      110.4933      -7939.9372      0.61640401     219.23912      350.77131      295.48464      301.55648      286.98244      40560.66       25268.675      64           
   3903000  -7830.564       110.00138     -7940.5654      0.61640401     218.26307      363.79894      293.59813      302.10737      279.30688      40558.383      25267.256      58           
   3904000  -7831.3031      110.50505     -7941.8082      0.61640401     219.26244      321.22253      297.48108      302.22832      280.47419      40566.702      25272.439      57           
   3905000  -7828.0769      113.43398     -7941.5109      0.61640401     225.07397      322.84634      312.11049      302.26356      280.70408      40670.723      25337.243      59           
   3906000  -7831.6168      110.48135     -7942.0981      0.61640401     219.21541      298.411        299.9804       300.44801      276.42009      40516.451      25241.134      66           
   3907000  -7833.1211      106.79125     -7939.9124      0.61640401     211.89358      313.60139      287.98113      288.94606      279.19563      40523.701      25245.65       66           
   3908000  -7828.1425      113.30199     -7941.4445      0.61640401     224.81208      267.24503      306.63954      313.27423      277.05991      40598.02       25291.95       56           
   3909000  -7830.1258      111.484       -7941.6098      0.61640401     221.20486      297.04784      305.32423      300.6005       274.40531      40509.138      25236.577      71           
   3910000  -7830.6034      110.5478      -7941.1512      0.61640401     219.34728      274.05252      301.26759      300.72354      275.96924      40342.578      25132.813      65           
   3911000  -7829.4721      109.23427     -7938.7064      0.61640401     216.74098      300.17793      291.11818      304.52162      274.68987      40682.575      25344.626      71           
   3912000  -7835.0517      107.50266     -7942.5544      0.61640401     213.30515      277.45041      295.71065      287.69357      267.85355      40405.683      25172.127      59           
   3913000  -7831.8761      111.99381     -7943.8699      0.61640401     222.21643      302.06618      302.7923       308.3611       272.49931      40638.537      25317.191      66           
   3914000  -7835.1495      109.46292     -7944.6124      0.61640401     217.19466      316.37447      301.16821      290.53675      272.97521      40778.263      25404.238      67           
   3915000  -7830.3973      112.15168     -7942.549       0.61640401     222.52965      320.03547      302.421        310.14206      266.79373      40439.606      25193.26       70           
   3916000  -7827.5535      111.30024     -7938.8537      0.61640401     220.84024      309.05926      303.81689      303.02616      263.4111       40452.728      25201.435      70           
   3917000  -7832.9704      110.2199      -7943.1903      0.61640401     218.69665      294.1207       301.87251      297.71224      268.54043      40519.041      25242.747      69           
   3918000  -7830.1414      108.25778     -7938.3992      0.61640401     214.80345      271.05034      289.66793      301.94614      271.75055      40618.373      25304.629      65           
   3919000  -7832.9963      107.95695     -7940.9532      0.61640401     214.20654      298.0648       292.991        293.8654       267.91805      40373.935      25152.348      66           
   3920000  -7833.3848      111.3637      -7944.7485      0.61640401     220.96616      312.74578      296.10916      312.05401      276.29716      40718.756      25367.166      65           
   3921000  -7831.27        112.31254     -7943.5825      0.61640401     222.84883      305.92125      299.37498      314.06475      278.67603      40512.734      25238.818      66           
   3922000  -7832.6593      110.52466     -7943.184       0.61640401     219.30135      324.43136      299.90118      297.98684      281.79866      40405.156      25171.799      65           
   3923000  -7832.7539      110.1611      -7942.915       0.61640401     218.57999      312.05879      295.01583      305.0696       274.52431      40521.603      25244.343      63           
   3924000  -7828.0073      111.7559      -7939.7632      0.61640401     221.74436      296.84126      296.45077      316.02081      274.15275      40537.264      25254.1        63           
   3925000  -7831.5663      110.83954     -7942.4058      0.61640401     219.92613      319.86518      306.40207      293.84451      270.48963      40555.232      25265.294      59           
   3926000  -7831.8434      107.50946     -7939.3529      0.61640401     213.31864      304.99549      288.04032      296.3701       272.41547      40786.98       25409.669      68           
   3927000  -7832.8801      107.75541     -7940.6355      0.61640401     213.80666      310.82723      292.04177      291.22873      275.6811       40579.787      25280.591      61           
   3928000  -7833.5641      110.96161     -7944.5257      0.61640401     220.16835      253.93856      295.42802      312.47258      280.67324      40512.28       25238.535      60           
   3929000  -7829.7536      110.03359     -7939.7871      0.61640401     218.32697      303.16868      293.62946      304.54496      283.94848      40733.439      25376.314      64           
   3930000  -7832.4216      108.95097     -7941.3726      0.61640401     216.17887      256.56568      293.96905      296.81037      291.13608      40264.47       25084.153      58           
   3931000  -7829.5452      112.3362      -7941.8814      0.61640401     222.89578      310.31523      301.86876      307.80179      290.03182      40653.245      25326.354      57           
   3932000  -7831.0238      111.34448     -7942.3682      0.61640401     220.92803      340.33178      303.41313      297.33132      286.86045      40557.414      25266.653      53           
   3933000  -7833.8749      108.25485     -7942.1297      0.61640401     214.79764      328.38856      289.86376      294.66149      287.81098      40410.466      25175.106      54           
   3934000  -7834.5685      108.22897     -7942.7974      0.61640401     214.74628      306.09392      282.38683      305.86994      291.47439      40455.629      25203.242      55           
   3935000  -7833.1037      109.38549     -7942.4892      0.61640401     217.04104      253.10116      294.23216      299.45138      291.86962      40747.648      25385.166      52           
   3936000  -7829.1824      110.79836     -7939.9808      0.61640401     219.84443      307.87719      292.00015      311.7722       286.68974      40614.821      25302.416      63           
   3937000  -7830.9056      110.82236     -7941.728       0.61640401     219.89204      318.07348      302.36527      296.54761      283.78291      40268.391      25086.596      63           
   3938000  -7830.4033      110.01927     -7940.4225      0.61640401     218.29856      261.53117      295.56591      302.43472      289.27376      40860.02       25455.172      52           
   3939000  -7827.4493      110.95038     -7938.3997      0.61640401     220.14607      315.92877      299.10057      301.14936      289.88263      40375.852      25153.542      62           
   3940000  -7831.9528      110.94817     -7942.9009      0.61640401     220.14167      282.18807      300.53718      300.98308      289.24421      40733.472      25376.335      53           
   3941000  -7831.6519      108.48842     -7940.1404      0.61640401     215.26108      305.83225      293.77181      289.93353      295.19794      40497.382      25229.254      55           
   3942000  -7831.579       111.27169     -7942.8507      0.61640401     220.78361      258.3978       302.56462      301.40048      290.14021      40662.023      25331.823      52           
   3943000  -7827.9127      111.70429     -7939.617       0.61640401     221.64197      295.30314      302.40912      303.31593      289.04073      40411.501      25175.751      50           
   3944000  -7830.337       112.03977     -7942.3768      0.61640401     222.30762      309.95598      307.46674      298.4966       284.45752      40354.546      25140.269      62           
   3945000  -7830.879       109.64296     -7940.522       0.61640401     217.5519       294.20129      305.66659      282.97762      288.91041      40740.377      25380.636      59           
   3946000  -7829.5486      110.03906     -7939.5877      0.61640401     218.33783      251.27394      298.12636      298.60606      292.57986      40422.978      25182.901      55           
   3947000  -7832.0723      111.49683     -7943.5691      0.61640401     221.23033      305.9446       298.97467      304.61669      295.94797      40730.526      25374.499      55           
   3948000  -7830.1431      112.65657     -7942.7997      0.61640401     223.53146      288.67251      301.75932      309.82086      297.03883      40440.842      25194.03       55           
   3949000  -7823.883       114.20404     -7938.087       0.61640401     226.60192      305.52458      299.69879      324.55911      293.23104      40565.005      25271.382      58           
   3950000  -7830.6076      110.33665     -7940.9442      0.61640401     218.92831      299.80254      302.20047      292.70774      290.57134      40599.866      25293.1        60           
   3951000  -7832.8699      108.33245     -7941.2023      0.61640401     214.95161      317.74288      290.26332      294.25652      291.10682      40412.613      25176.444      59           
   3952000  -7833.4466      106.55247     -7939.9991      0.61640401     211.4198       312.76882      290.30061      282.66806      283.99715      40695.967      25352.969      63           
   3953000  -7832.2181      109.25906     -7941.4772      0.61640401     216.79017      307.68297      295.13801      297.33195      278.79904      40517.364      25241.702      65           
   3954000  -7827.8265      110.82687     -7938.6533      0.61640401     219.90099      303.31445      305.00186      296.31862      272.16579      40595.931      25290.648      65           
   3955000  -7829.1655      109.73809     -7938.9036      0.61640401     217.74065      326.44325      298.40186      296.2155       273.66818      40483.684      25220.72       62           
   3956000  -7829.521       111.12058     -7940.6416      0.61640401     220.48378      303.70949      307.2299       294.67508      274.14028      40837.976      25441.439      62           
   3957000  -7834.802       107.68148     -7942.4835      0.61640401     213.65997      322.34705      294.45095      285.91641      277.77047      40222.93       25058.275      63           
   3958000  -7831.7497      107.90757     -7939.6572      0.61640401     214.10856      349.72123      286.71359      297.44023      278.08183      40531.472      25250.491      63           
   3959000  -7830.4334      109.65406     -7940.0875      0.61640401     217.57392      316.94925      289.56149      307.75567      280.62264      40589.519      25286.654      61           
   3960000  -7827.1106      114.37445     -7941.4851      0.61640401     226.94006      312.8088       308.89895      314.76313      280.68512      40462.325      25207.414      58           
   3961000  -7830.9869      109.95925     -7940.9462      0.61640401     218.17947      266.75752      295.81932      304.77851      276.13899      40819.603      25429.992      65           
   3962000  -7827.1479      112.67489     -7939.8228      0.61640401     223.56781      269.42796      300.13603      319.27031      273.56574      40270.008      25087.603      70           
   3963000  -7831.3467      108.88422     -7940.2309      0.61640401     216.04642      250.70164      301.38119      290.20113      274.04435      40579.676      25280.522      75           
   3964000  -7826.4495      112.82753     -7939.277       0.61640401     223.87068      299.99417      304.73522      311.34853      274.28572      40197.693      25042.552      76           
   3965000  -7833.2149      108.91271     -7942.1276      0.61640401     216.10294      296.27049      294.80204      296.75509      275.29935      40757.629      25391.384      69           
   3966000  -7830.9904      109.21787     -7940.2083      0.61640401     216.70844      314.75131      299.27966      289.9936       280.82992      40251.172      25075.869      63           
   3967000  -7830.5416      108.94305     -7939.4846      0.61640401     216.16315      234.96063      295.6785       297.3801       284.59729      40835.644      25439.986      66           
   3968000  -7830.0356      110.92944     -7940.9651      0.61640401     220.10451      288.49767      293.46965      313.451        279.52423      40370.567      25150.25       67           
   3969000  -7833.6845      108.46384     -7942.1483      0.61640401     215.2123       284.44735      296.79677      289.04362      284.52769      40492.069      25225.944      68           
   3970000  -7830.9926      109.43507     -7940.4277      0.61640401     217.1394       271.01741      298.92599      295.10796      279.69692      40543.26       25257.835      64           
   3971000  -7833.0531      109.35302     -7942.4061      0.61640401     216.97661      322.04561      298.93104      292.96745      272.36846      40297.78       25104.904      70           
   3972000  -7826.4346      111.84482     -7938.2795      0.61640401     221.9208       334.20689      301.59636      306.9351       273.45777      40870.515      25461.71       64           
   3973000  -7829.7154      110.32478     -7940.0402      0.61640401     218.90476      266.08225      300.99125      299.17823      279.04365      40249.5        25074.827      60           
   3974000  -7827.3605      111.32238     -7938.6829      0.61640401     220.88418      338.49327      292.89639      315.25322      274.19545      40720.974      25368.548      68           
   3975000  -7830.1277      109.47886     -7939.6066      0.61640401     217.22629      290.95854      298.56887      293.80324      283.597        40487.887      25223.339      64           
   3976000  -7831.9816      109.52173     -7941.5033      0.61640401     217.31135      291.19677      295.75758      298.7349       281.59016      40700.432      25355.751      70           
   3977000  -7829.7752      110.26686     -7940.042       0.61640401     218.78983      317.37132      298.20117      297.57252      287.25887      40291.529      25101.011      73           
   3978000  -7831.2622      110.96569     -7942.2279      0.61640401     220.17643      301.42897      300.28139      301.0748       286.4536       40574.325      25277.188      69           
   3979000  -7830.0791      110.61614     -7940.6952      0.61640401     219.48288      306.94664      300.53182      298.97735      281.05968      40564.706      25271.196      68           
   3980000  -7831.6398      110.54911     -7942.1889      0.61640401     219.34987      264.47175      300.40702      301.33728      281.58454      40234.453      25065.453      70           
   3981000  -7828.1036      112.48929     -7940.5929      0.61640401     223.19955      320.9234       301.79986      310.4669       278.41356      40777.162      25403.553      80           
   3982000  -7826.376       109.99632     -7936.3723      0.61640401     218.25303      291.612        301.93534      294.07332      276.74986      40273.358      25089.69       79           
   3983000  -7827.4636      111.70731     -7939.1709      0.61640401     221.64795      245.94902      304.18409      305.79011      281.32724      40808.091      25422.82       73           
   3984000  -7830.5406      111.36847     -7941.909       0.61640401     220.97563      310.42848      313.51117      285.42466      279.05162      40224.041      25058.966      70           
   3985000  -7829.4646      111.13594     -7940.6006      0.61640401     220.51425      253.66513      301.83913      302.87837      286.72755      40712.588      25363.324      62           
   3986000  -7829.0962      109.95197     -7939.0482      0.61640401     218.16503      282.41621      307.30731      283.52074      289.00658      40541.468      25256.719      63           
   3987000  -7829.8475      111.80415     -7941.6517      0.61640401     221.8401       281.36602      308.14248      296.59899      287.60806      40734.107      25376.73       62           
   3988000  -7830.6928      110.51177     -7941.2045      0.61640401     219.27577      311.14511      292.73746      306.02143      295.81897      40574.17       25277.091      70           
   3989000  -7829.7499      110.57939     -7940.3293      0.61640401     219.40995      345.6694       296.49718      300.25188      289.12533      40363.03       25145.554      68           
   3990000  -7834.7088      106.11195     -7940.8208      0.61640401     210.54572      300.33048      286.1226       287.54418      278.88213      40771.684      25400.139      64           
   3991000  -7831.1662      111.29542     -7942.4616      0.61640401     220.83069      292.99905      299.81879      307.85345      273.49176      40098.84       24980.968      67           
   3992000  -7833.5335      107.38558     -7940.9191      0.61640401     213.07285      253.99973      302.32802      277.25811      273.34909      40953.166      25513.2        67           
   3993000  -7830.8021      108.54632     -7939.3485      0.61640401     215.37596      256.0307       299.94832      289.27478      273.78736      40216.228      25054.099      64           
   3994000  -7828.9705      111.87277     -7940.8433      0.61640401     221.97625      270.65945      306.12026      302.84959      279.54117      40788.835      25410.825      67           
   3995000  -7830.6057      112.03349     -7942.6392      0.61640401     222.29515      269.71722      301.98494      309.54473      282.65395      40316.282      25116.431      66           
   3996000  -7834.4257      108.06621     -7942.4919      0.61640401     214.42334      348.62875      291.38245      289.89874      284.2273       40760.707      25393.301      69           
   3997000  -7830.8977      109.90351     -7940.8012      0.61640401     218.06887      335.09885      297.84729      295.33809      282.34177      40542.527      25257.378      71           
   3998000  -7832.0329      109.63729     -7941.6702      0.61640401     217.54065      348.41355      295.74582      297.16347      275.25478      40318.91       25118.068      71           
   3999000  -7829.8667      110.84212     -7940.7088      0.61640401     219.93126      371.89699      293.91288      307.6674       276.70775      40845.57       25446.169      65           
   4000000  -7829.2446      110.41867     -7939.6632      0.61640401     219.09106      373.89562      294.08624      304.56673      273.12625      40225.312      25059.758      68           
   4001000  -7826.7706      110.71034     -7937.4809      0.61640401     219.66978      324.48437      302.85339      298.28256      268.51044      40749.515      25386.329      67           
   4002000  -7827.0963      109.69329     -7936.7895      0.61640401     217.65176      311.03685      296.18398      299.45228      276.54655      40116.134      24991.742      64           
   4003000  -7829.8499      110.49544     -7940.3453      0.61640401     219.24337      312.06633      302.07155      295.97351      279.00997      40771.076      25399.761      72           
   4004000  -7833.6392      107.02508     -7940.6643      0.61640401     212.35753      315.58564      295.53143      279.04733      280.45138      40255.316      25078.451      66           
   4005000  -7828.6964      110.02849     -7938.7249      0.61640401     218.31687      339.05524      296.60047      298.8467       280.05485      40665.959      25334.275      64           
   4006000  -7832.7043      110.10949     -7942.8138      0.61640401     218.47758      276.54162      302.32037      292.55527      288.37009      40473.391      25214.308      53           
   4007000  -7830.5846      109.5822      -7940.1668      0.61640401     217.43134      326.2095       294.62676      299.06486      281.66326      40632.205      25313.247      58           
   4008000  -7830.3995      108.31628     -7938.7158      0.61640401     214.91952      331.8535       293.51574      290.48011      283.56942      40658.929      25329.895      56           
   4009000  -7832.5559      107.47818     -7940.0341      0.61640401     213.25658      260.9131       293.76182      287.02129      285.88919      40326.885      25123.036      56           
   4010000  -7830.4407      110.58512     -7941.0258      0.61640401     219.42132      254.31853      301.69534      298.99482      285.85516      40859.372      25454.768      57           
   4011000  -7830.1774      109.14268     -7939.3201      0.61640401     216.55926      335.77954      294.94105      293.76154      286.31125      40286.688      25097.995      54           
   4012000  -7827.5258      110.80768     -7938.3335      0.61640401     219.86292      300.74969      294.41599      308.25394      288.81057      40618.217      25304.532      55           
   4013000  -7824.2449      112.66435     -7936.9093      0.61640401     223.5469       326.64689      298.95959      314.61425      286.81881      40218.803      25055.704      55           
   4014000  -7826.9069      112.61907     -7939.526       0.61640401     223.45705      304.11861      305.65095      305.0137       288.9844       40768.114      25397.915      47           
   4015000  -7831.2897      109.56051     -7940.8502      0.61640401     217.38829      260.90525      297.99236      295.65385      287.96522      40308.154      25111.368      47           
   4016000  -7827.6524      111.08968     -7938.7421      0.61640401     220.42247      312.55052      299.72079      302.06072      288.93703      40662.067      25331.85       42           
   4017000  -7832.73        110.01414     -7942.7441      0.61640401     218.28839      360.32265      292.87201      300.34843      293.8379       40643.436      25320.243      53           
   4018000  -7831.5671      109.39216     -7940.9593      0.61640401     217.05426      316.31289      291.35642      301.00953      291.46881      40474.421      25214.949      42           
   4019000  -7828.9371      109.74217     -7938.6793      0.61640401     217.74875      313.7649       296.49694      296.28176      289.32501      40706.752      25359.688      57           
   4020000  -7830.9415      110.38209     -7941.3236      0.61640401     219.01847      318.72711      293.61953      304.35339      292.64979      40283.807      25096.2        55           
   4021000  -7828.8574      111.95438     -7940.8118      0.61640401     222.13818      285.70476      311.12989      291.20331      294.80733      40646.593      25322.21       50           
   4022000  -7825.8025      112.93137     -7938.7339      0.61640401     224.07671      290.14244      311.09512      299.73565      289.8954       40330.954      25125.572      61           
   4023000  -7829.2332      111.76987     -7941.0031      0.61640401     221.77209      337.17871      303.1088       300.32344      289.36368      40773.463      25401.248      59           
   4024000  -7830.9948      111.99996     -7942.9948      0.61640401     222.22863      293.46052      302.2702       306.07519      287.99187      40470.234      25212.341      54           
   4025000  -7830.1246      109.40432     -7939.529       0.61640401     217.07839      240.27673      297.48067      295.94085      288.25854      40539.459      25255.467      45           
   4026000  -7828.8979      112.38407     -7941.282       0.61640401     222.99077      292.71316      305.35385      304.24158      288.87678      40577.477      25279.152      60           
   4027000  -7827.604       113.21774     -7940.8218      0.61640401     224.64493      328.02054      305.17256      307.02515      295.23086      40378.487      25155.184      65           
   4028000  -7831.0777      109.51369     -7940.5914      0.61640401     217.2954       337.48161      293.95379      295.52978      293.85497      40552.255      25263.439      67           
   4029000  -7830.7586      110.28677     -7941.0454      0.61640401     218.82934      332.32723      297.94847      295.7562       293.4945       40632.708      25313.56       69           
   4030000  -7830.8502      111.09996     -7941.9502      0.61640401     220.44285      327.38957      298.88662      301.50448      290.632        40641.21       25318.856      69           
   4031000  -7830.5442      111.8436      -7942.3878      0.61640401     221.91837      376.64945      296.03662      310.14506      283.72789      40225.718      25060.011      63           
   4032000  -7827.7429      110.95753     -7938.7004      0.61640401     220.16024      316.94883      301.88426      294.68402      298.80898      40734.991      25377.281      70           
   4033000  -7829.9931      111.40676     -7941.3998      0.61640401     221.0516       336.07397      303.76721      292.93681      303.2862       40536.617      25253.696      70           
   4034000  -7829.9346      110.0716      -7940.0062      0.61640401     218.4024       278.17325      293.36537      301.28538      307.57089      40358.837      25142.942      72           
   4035000  -7828.8743      113.60157     -7942.4759      0.61640401     225.4065       340.45762      317.22481      288.74594      304.88627      40555.878      25265.696      71           
   4036000  -7826.6205      112.19735     -7938.8178      0.61640401     222.62027      293.05155      306.02678      297.50852      306.65102      40685.955      25346.732      61           
   4037000  -7825.206       112.51607     -7937.722       0.61640401     223.25269      328.52297      300.21724      306.94901      304.6947       40502.962      25232.73       62           
   4038000  -7826.2362      112.46274     -7938.6989      0.61640401     223.14685      330.5654       309.24054      294.94553      297.50771      40452.126      25201.06       53           
   4039000  -7827.7328      110.83267     -7938.5654      0.61640401     219.9125       329.28228      298.87658      299.5224       291.79877      40770.785      25399.579      56           
   4040000  -7827.661       110.45344     -7938.1144      0.61640401     219.16003      318.42258      297.78497      298.13037      294.40647      40303.866      25108.696      61           
   4041000  -7828.4232      111.91513     -7940.3383      0.61640401     222.0603       295.56686      308.66978      293.82458      296.03455      40668.748      25336.012      62           
   4042000  -7826.8949      112.81684     -7939.7118      0.61640401     223.84947      356.6043       304.86992      299.79083      307.08501      40497.604      25229.392      67           
   4043000  -7828.4048      112.28715     -7940.692       0.61640401     222.79846      230.17438      305.95445      301.58194      311.40623      40514.16       25239.706      71           
   4044000  -7827.0012      114.53567     -7941.5369      0.61640401     227.25994      258.19655      309.08662      309.3811       318.9303       40687.284      25347.56       56           
   4045000  -7827.5656      113.25546     -7940.8211      0.61640401     224.71977      282.24083      311.41715      296.48033      313.02322      40369.184      25149.388      59           
   4046000  -7827.0279      112.90209     -7939.93        0.61640401     224.01862      302.08384      302.46256      307.82223      305.69869      40550.964      25262.634      64           
   4047000  -7826.6557      109.77754     -7936.4332      0.61640401     217.81893      304.91707      300.13359      287.92553      304.3762       40464.528      25208.786      60           
   4048000  -7824.9743      113.00281     -7937.9771      0.61640401     224.21846      306.42102      299.43993      313.93684      301.22677      40792.452      25413.078      56           
   4049000  -7830.1858      111.30412     -7941.4899      0.61640401     220.84794      327.72507      297.91466      301.48618      304.29091      40223.507      25058.634      58           
   4050000  -7832.2184      111.39506     -7943.6134      0.61640401     221.02838      303.03347      298.62732      301.42275      308.42464      40680.367      25343.25       54           
   4051000  -7829.49        108.75486     -7938.2448      0.61640401     215.78975      310.34529      288.65936      295.21436      311.92109      40454.308      25202.42       51           
   4052000  -7824.4055      112.4621      -7936.8676      0.61640401     223.1456       270.99348      303.68802      301.24471      317.26947      40516.273      25241.023      51           
   4053000  -7827.1506      113.80175     -7940.9524      0.61640401     225.80371      284.1999       305.00574      309.18468      315.64175      40545.753      25259.388      51           
   4054000  -7831.5368      110.8385      -7942.3753      0.61640401     219.92407      263.57134      300.78471      295.12489      310.85015      40484.243      25221.068      46           
   4055000  -7832.9985      110.47832     -7943.4768      0.61640401     219.20941      305.20811      298.82078      293.91332      309.50774      40654.688      25327.253      51           
   4056000  -7829.337       110.69773     -7940.0347      0.61640401     219.64475      275.85338      296.25479      301.18815      308.81269      40463.845      25208.361      60           
   4057000  -7828.1194      112.96        -7941.0794      0.61640401     224.13352      266.25447      302.12819      309.59796      309.70699      40699.156      25354.956      54           
   4058000  -7830.7875      111.31923     -7942.1067      0.61640401     220.87794      403.74355      299.13219      296.71386      305.18145      40367.962      25148.627      44           
   4059000  -7829.9674      112.12336     -7942.0907      0.61640401     222.47348      340.06589      299.77656      302.64473      311.83299      40802.34       25419.238      48           
   4060000  -7828.6802      111.59145     -7940.2717      0.61640401     221.41805      339.51112      304.10824      293.64572      305.46192      40244.165      25071.503      53           
   4061000  -7824.4372      114.25486     -7938.6921      0.61640401     226.70276      309.40164      303.67135      317.22056      300.09022      40766.844      25397.125      48           
   4062000  -7828.6842      111.15236     -7939.8366      0.61640401     220.54683      288.97233      304.84883      293.38093      298.90892      40535.801      25253.188      49           
   4063000  -7824.8407      113.65481     -7938.4955      0.61640401     225.51214      287.76377      306.16376      310.84381      296.68336      40425.595      25184.532      48           
   4064000  -7827.0092      110.53389     -7937.5431      0.61640401     219.31967      311.11552      299.86608      293.52145      305.04635      40400.816      25169.094      55           
   4065000  -7829.149       111.96624     -7941.1153      0.61640401     222.16172      274.53635      303.31176      300.29062      307.21317      40587.937      25285.668      46           
   4066000  -7829.3304      112.92277     -7942.2531      0.61640401     224.05965      323.86831      299.43531      309.06459      314.97506      40442.429      25195.019      49           
   4067000  -7831.7315      110.88073     -7942.6122      0.61640401     220.00786      350.88614      290.86476      304.76397      317.68034      40199.368      25043.595      45           
   4068000  -7827.1209      111.78261     -7938.9035      0.61640401     221.79735      339.50595      298.4921       299.81672      319.86748      40924.042      25495.057      52           
   4069000  -7828.2972      110.76047     -7939.0577      0.61640401     219.76924      407.48014      301.95201      285.09612      312.98417      40052.516      24952.109      55           
   4070000  -7825.67        112.74453     -7938.4146      0.61640401     223.70598      314.78359      306.97088      297.00378      314.59888      40776.429      25403.096      57           
   4071000  -7823.4942      112.25991     -7935.7541      0.61640401     222.74441      310.76828      302.84183      300.51572      311.33421      40324.564      25121.591      61           
   4072000  -7828.238       111.43131     -7939.6693      0.61640401     221.10032      362.89418      300.48957      296.85153      302.50474      40627.38       25310.241      62           
   4073000  -7826.2424      113.41708     -7939.6595      0.61640401     225.04045      312.58297      310.52066      299.38452      304.51325      40443.404      25195.626      62           
   4074000  -7830.0314      111.09766     -7941.129       0.61640401     220.43829      306.51225      297.1078       300.24911      312.63067      40450.98       25200.346      65           
   4075000  -7830.7799      110.21525     -7940.9951      0.61640401     218.68744      282.45206      297.774        293.57669      314.05101      40662.045      25331.836      56           
   4076000  -7826.8251      114.28152     -7941.1066      0.61640401     226.75566      294.50096      304.73087      312.40699      317.60405      40517.077      25241.523      61           
   4077000  -7826.3061      114.83157     -7941.1376      0.61640401     227.84707      315.88173      321.06501      291.35832      315.93099      40762.88       25394.655      63           
   4078000  -7828.9085      114.19305     -7943.1016      0.61640401     226.58012      293.40271      309.9951       304.7474       313.99414      40164.709      25022.004      57           
   4079000  -7829.688       111.69416     -7941.3821      0.61640401     221.62186      306.22554      298.85309      301.75178      314.33454      40678.351      25341.995      63           
   4080000  -7830.1133      110.42709     -7940.5404      0.61640401     219.10775      354.47772      298.58944      293.14112      301.26328      40270.261      25087.761      58           
   4081000  -7829.029       112.40727     -7941.4363      0.61640401     223.03679      339.84887      300.86125      304.35547      304.43384      40592.404      25288.451      67           
   4082000  -7829.663       109.10104     -7938.764       0.61640401     216.47663      321.10101      289.74735      298.28053      299.97399      40611.704      25300.475      67           
   4083000  -7829.7119      109.10318     -7938.8151      0.61640401     216.48087      311.41127      291.92086      295.99214      299.26277      40562.529      25269.839      59           
   4084000  -7832.9081      106.47519     -7939.3833      0.61640401     211.26645      290.12942      284.21617      286.03669      311.12007      40613.229      25301.425      67           
   4085000  -7832.0674      109.28528     -7941.3526      0.61640401     216.84219      279.32109      298.98441      284.65858      317.24009      40430.486      25187.578      70           
   4086000  -7829.6452      112.83848     -7942.4837      0.61640401     223.89241      320.48367      311.83499      288.78391      320.24188      40643.354      25320.192      67           
   4087000  -7828.2067      112.31217     -7940.5189      0.61640401     222.84811      318.43974      300.56361      301.77603      320.01388      40238.027      25067.68       69           
   4088000  -7829.6337      111.88363     -7941.5173      0.61640401     221.9978       285.43164      303.347        295.04082      325.34501      40775.746      25402.67       58           
   4089000  -7825.5513      112.25641     -7937.8077      0.61640401     222.73747      329.75026      306.71034      291.75615      319.59254      40475.767      25215.788      56           
   4090000  -7828.6209      112.77535     -7941.3963      0.61640401     223.76713      336.18552      310.15448      291.47149      313.85575      40660.269      25330.73       61           
   4091000  -7827.8629      111.24804     -7939.111       0.61640401     220.73667      314.18104      296.19976      301.31509      316.82638      40612.124      25300.737      63           
   4092000  -7824.222       114.25014     -7938.4722      0.61640401     226.6934       311.3983       304.63816      311.87401      315.45219      40503.467      25233.045      59           
   4093000  -7825.6843      114.76853     -7940.4528      0.61640401     227.72197      347.51253      310.43258      303.77786      321.15015      40664.546      25333.394      56           
   4094000  -7828.5023      113.87138     -7942.3737      0.61640401     225.94186      333.3394       307.5701       301.59969      322.67468      40369.536      25149.608      60           
   4095000  -7828.444       111.52429     -7939.9683      0.61640401     221.2848       325.08351      300.69185      293.79441      326.32627      40750.405      25386.883      60           
   4096000  -7833.3196      109.48294     -7942.8025      0.61640401     217.23438      300.96008      289.78052      295.11797      329.9079       40271.535      25088.554      58           
   4097000  -7829.3354      111.99827     -7941.3336      0.61640401     222.22527      283.55309      299.44478      302.31691      323.88659      40613.362      25301.507      65           
   4098000  -7827.9616      112.03229     -7939.9939      0.61640401     222.29278      314.90314      301.202        297.27754      327.05502      40555.301      25265.336      61           
   4099000  -7825.8596      115.10554     -7940.9652      0.61640401     228.39067      329.97423      317.08743      297.58434      319.82778      40576.734      25278.689      62           
   4100000  -7829.7963      110.86322     -7940.6595      0.61640401     219.97311      316.47252      296.53293      299.16899      311.28793      40550.233      25262.179      57           
   4101000  -7829.8018      111.14163     -7940.9435      0.61640401     220.52554      278.29874      302.69534      291.66903      321.52881      40686.072      25346.805      58           
   4102000  -7828.6272      113.85004     -7942.4772      0.61640401     225.89952      304.78809      310.46367      298.39029      323.68884      40368.075      25148.697      50           
   4103000  -7831.3955      108.88418     -7940.2797      0.61640401     216.04633      282.35734      298.02203      280.09722      326.09202      40536.131      25253.394      50           
   4104000  -7826.7239      112.16445     -7938.8883      0.61640401     222.555        375.51134      291.53221      309.41469      328.84257      40688.015      25348.015      52           
   4105000  -7829.6636      112.52023     -7942.1838      0.61640401     223.26094      353.48155      304.18908      293.43545      331.298        40349.535      25137.147      55           
   4106000  -7826.7931      111.77218     -7938.5653      0.61640401     221.77666      314.0829       301.06843      294.45801      331.28806      40620.745      25306.107      52           
   4107000  -7827.298       113.45137     -7940.7494      0.61640401     225.10849      249.55785      301.96799      308.33605      333.25235      40587.951      25285.677      50           
   4108000  -7831.2077      111.28948     -7942.4972      0.61640401     220.81889      351.59476      303.46431      286.85396      325.42974      40648.137      25323.172      53           
   4109000  -7828.7677      111.50469     -7940.2724      0.61640401     221.24591      348.81358      295.49977      301.16443      323.40543      40527.375      25247.939      50           
   4110000  -7826.6871      113.8106      -7940.4977      0.61640401     225.82127      408.67102      311.44775      292.29932      319.80037      40641.883      25319.276      54           
   4111000  -7828.9634      110.65129     -7939.6147      0.61640401     219.55261      401.66941      294.40645      295.12747      312.228        40550.886      25262.586      65           
   4112000  -7824.9648      114.37488     -7939.3397      0.61640401     226.9409       360.241        309.35508      303.53854      313.19954      40399.263      25168.127      59           
   4113000  -7825.2394      112.7171      -7937.9565      0.61640401     223.65155      328.9771       300.02576      306.8697       313.19354      40694.858      25352.278      52           
   4114000  -7826.1265      111.9738      -7938.1003      0.61640401     222.17671      319.92429      309.07926      286.66044      319.38962      40408.609      25173.949      54           
   4115000  -7826.3868      114.81489     -7941.2016      0.61640401     227.81395      349.46909      311.6875       302.14241      321.25187      40497.674      25229.436      54           
   4116000  -7828.6226      112.62821     -7941.2508      0.61640401     223.47518      347.679        296.07268      308.42791      324.4706       40627.922      25310.578      52           
   4117000  -7825.4048      113.63187     -7939.0367      0.61640401     225.46664      352.95301      294.98491      316.13812      329.53459      40741.738      25381.484      49           
   4118000  -7827.4279      112.66122     -7940.0891      0.61640401     223.54068      369.27187      298.23493      303.06848      327.59132      40308.419      25111.533      59           
   4119000  -7825.0483      114.56545     -7939.6137      0.61640401     227.31902      334.46324      303.80041      311.81801      324.97342      40681.832      25344.163      62           
   4120000  -7828.2137      111.69085     -7939.9045      0.61640401     221.61529      283.42689      300.07875      299.23889      324.03705      40550.839      25262.556      72           
   4121000  -7827.7186      113.63717     -7941.3558      0.61640401     225.47714      305.77292      309.48439      299.27464      320.63902      40341.292      25132.012      74           
   4122000  -7827.3306      113.28195     -7940.6125      0.61640401     224.77232      299.58121      308.13574      299.04023      320.03149      40504.09       25233.433      70           
   4123000  -7824.2374      113.8592      -7938.0966      0.61640401     225.9177       299.11607      305.77474      306.24212      322.77991      40700.299      25355.668      66           
   4124000  -7826.4092      112.55504     -7938.9642      0.61640401     223.33         309.67654      298.52459      306.56856      322.92039      40538.102      25254.621      70           
   4125000  -7829.5342      112.38227     -7941.9165      0.61640401     222.98719      284.40835      300.53793      302.38577      329.32267      40391.462      25163.267      68           
   4126000  -7832.7726      109.54071     -7942.3133      0.61640401     217.34903      266.07314      299.88236      283.13196      328.99234      40429.193      25186.773      67           
   4127000  -7830.6125      110.94584     -7941.5584      0.61640401     220.13705      375.46581      292.29875      296.7496       333.36814      40562.746      25269.975      70           
   4128000  -7833.1454      110.64647     -7943.7919      0.61640401     219.54304      336.21611      296.79456      292.23707      326.83262      40490.912      25225.223      63           
   4129000  -7827.9298      113.45972     -7941.3895      0.61640401     225.12505      339.35378      311.12962      293.2577       320.82216      40434.31       25189.961      61           
   4130000  -7826.166       114.49159     -7940.6575      0.61640401     227.17248      349.34479      301.00056      315.9401       318.74604      40576.627      25278.622      66           
   4131000  -7828.6723      112.44869     -7941.1209      0.61640401     223.11898      371.05392      297.77058      305.12389      314.71889      40696.026      25353.006      62           
   4132000  -7828.559       112.67001     -7941.229       0.61640401     223.55812      346.65974      304.34579      299.18889      313.55866      40614.602      25302.28       50           
   4133000  -7827.5156      112.08148     -7939.597       0.61640401     222.39038      313.27376      296.52534      308.46174      311.61261      40389.671      25162.152      55           
   4134000  -7830.1655      111.68175     -7941.8473      0.61640401     221.59724      298.95154      298.74086      303.59681      308.60497      40517.24       25241.625      50           
   4135000  -7825.3471      113.79719     -7939.1443      0.61640401     225.79466      355.60324      303.37265      308.82329      313.08981      40319.047      25118.154      48           
   4136000  -7827.3988      113.13144     -7940.5302      0.61640401     224.47368      295.60592      301.33116      310.0094       311.479        40405.549      25172.043      47           
   4137000  -7828.7048      110.97164     -7939.6764      0.61640401     220.18824      301.79831      294.24719      302.84072      316.24034      40496.34       25228.605      48           
   4138000  -7828.7381      109.86957     -7938.6076      0.61640401     218.00153      289.72997      293.59257      296.08048      315.86956      40374.825      25152.903      42           
   4139000  -7829.0069      110.58138     -7939.5883      0.61640401     219.41389      349.69119      299.15113      292.85827      306.29253      40578.557      25279.824      50           
   4140000  -7827.0875      113.31206     -7940.3995      0.61640401     224.83207      333.68628      306.1188       303.24287      308.98743      40712.029      25362.975      44           
   4141000  -7829.8599      108.98162     -7938.8416      0.61640401     216.23967      290.52316      288.18336      298.48804      311.76875      40580.92       25281.297      44           
   4142000  -7831.9961      109.93689     -7941.933       0.61640401     218.13512      315.68075      292.35025      298.24376      312.34615      40493.561      25226.874      44           
   4143000  -7828.1517      112.34885     -7940.5005      0.61640401     222.92088      324.70411      302.34129      301.54105      310.80339      40719.568      25367.672      44           
   4144000  -7830.5407      108.78538     -7939.3261      0.61640401     215.85029      312.28257      291.28224      292.02503      309.63776      40247.77       25073.749      44           
   4145000  -7831.9527      111.56811     -7943.5208      0.61640401     221.37175      375.82543      297.79292      300.79491      307.80289      40767.996      25397.842      48           
   4146000  -7828.3869      112.88644     -7941.2733      0.61640401     223.98755      407.54319      303.1889       301            307.5536       40644.564      25320.946      51           
   4147000  -7830.1228      111.21196     -7941.3347      0.61640401     220.66508      275.72982      295.39487      303.23238      319.79233      40402.748      25170.298      48           
   4148000  -7825.2864      113.33423     -7938.6206      0.61640401     224.87605      338.56835      306.67065      299.3304       320.49948      40616.38       25303.388      49           
   4149000  -7825.1067      113.21058     -7938.3173      0.61640401     224.63071      318.85298      305.557        303.19626      311.38892      40519.735      25243.179      56           
   4150000  -7823.4753      115.92324     -7939.3985      0.61640401     230.01314      359.30299      307.26623      318.56169      312.79426      40425.968      25184.764      56           
   4151000  -7826.2045      112.95991     -7939.1645      0.61640401     224.13334      360.76027      302.31469      303.66756      313.71284      40626.336      25309.59       49           
   4152000  -7828.8717      111.83873     -7940.7104      0.61640401     221.90872      346.17706      305.12265      291.69401      313.18594      40607.214      25297.678      54           
   4153000  -7830.0707      110.67796     -7940.7487      0.61640401     219.60553      274.52812      300.95018      291.43029      318.08065      40486.553      25222.507      47           
   4154000  -7826.5414      111.68316     -7938.2246      0.61640401     221.60003      218.76453      298.54526      302.75791      325.97552      40577.699      25279.29       45           
   4155000  -7829.8675      112.01696     -7941.8845      0.61640401     222.26236      300.78243      300.6896       300.181        319.50669      40557.997      25267.016      41           
   4156000  -7829.2016      110.99985     -7940.2015      0.61640401     220.24423      288.95328      302.69119      290.83132      316.75321      40651.091      25325.012      47           
   4157000  -7827.8685      110.57871     -7938.4472      0.61640401     219.4086       269.03281      293.65281      303.06688      312.13231      40502.15       25232.224      44           
   4158000  -7825.1502      113.28957     -7938.4397      0.61640401     224.78744      306.54677      305.82109      304.27586      310.34392      40490.294      25224.838      41           
   4159000  -7826.7924      110.24048     -7937.0329      0.61640401     218.73749      315.25148      293.56827      298.53257      313.0705       40607.874      25298.089      41           
   4160000  -7828.353       111.85917     -7940.2121      0.61640401     221.94926      346.35072      306.13971      289.35991      318.19304      40382.745      25157.836      45           
   4161000  -7826.4592      111.63235     -7938.0915      0.61640401     221.49921      320.80688      298.48525      297.81757      326.89198      40545.914      25259.488      47           
   4162000  -7827.911       111.25995     -7939.171       0.61640401     220.76031      275.78384      303.08284      289.64056      328.25445      40524.607      25246.215      43           
   4163000  -7827.6873      112.6987      -7940.386       0.61640401     223.61505      308.31146      301.23793      300.99814      331.86597      40410.484      25175.118      47           
   4164000  -7829.1918      111.553       -7940.7448      0.61640401     221.34178      322.12709      298.28468      296.17844      332.24601      40696.415      25353.248      47           
   4165000  -7827.0424      113.46312     -7940.5055      0.61640401     225.1318       282.45681      301.62744      308.25587      326.94401      40650.191      25324.451      35           
   4166000  -7830.7352      108.96631     -7939.7015      0.61640401     216.2093       290.73327      291.10465      292.59571      316.60495      40564.356      25270.977      41           
   4167000  -7827.3988      111.5295      -7938.9283      0.61640401     221.29514      321.0301       300.97431      298.08733      308.80112      40390.744      25162.82       42           
   4168000  -7829.0356      109.64087     -7938.6765      0.61640401     217.54776      261.39439      287.85034      304.69699      313.11094      40457.936      25204.679      43           
   4169000  -7829.5296      110.27981     -7939.8094      0.61640401     218.81553      293.83061      296.46416      294.50833      316.21259      40639.392      25317.724      40           
   4170000  -7835.1165      108.41923     -7943.5358      0.61640401     215.1238       260.92923      281.93492      302.29339      320.40118      40570.498      25274.804      38           
   4171000  -7830.7883      112.29551     -7943.0838      0.61640401     222.81506      261.3756       303.40596      298.1161       325.11856      40467.674      25210.746      38           
   4172000  -7831.4091      109.98092     -7941.39        0.61640401     218.22246      331.44039      293.86065      291.87421      327.45213      40584.26       25283.377      38           
   4173000  -7826.792       112.92417     -7939.7162      0.61640401     224.06243      316.49256      305.95028      296.32988      328.41016      40680.362      25343.247      43           
   4174000  -7828.8498      112.14815     -7940.998       0.61640401     222.52266      291.70145      301.07707      298.54904      329.9058       40402.169      25169.937      51           
   4175000  -7826.6334      114.01203     -7940.6455      0.61640401     226.22095      334.73201      305.46512      304.07531      330.11107      40512.968      25238.963      45           
   4176000  -7829.9855      109.09895     -7939.0845      0.61640401     216.47249      244.94401      297.86728      283.8101       323.79535      40654.86       25327.36       44           
   4177000  -7825.3706      114.03285     -7939.4034      0.61640401     226.26226      336.73742      305.7099       308.30326      312.48324      40577.065      25278.895      42           
   4178000  -7829.8944      111.79192     -7941.6863      0.61640401     221.81583      272.6946       297.71228      305.29384      315.43546      40578.93       25280.057      45           
   4179000  -7829.5323      111.04323     -7940.5755      0.61640401     220.33029      273.968        295.30732      301.64956      321.49878      40558.42       25267.28       46           
   4180000  -7828.9895      111.23228     -7940.2218      0.61640401     220.7054       300.20588      293.40573      301.13431      336.23961      40556.541      25266.109      51           
   4181000  -7830.8682      112.02105     -7942.8892      0.61640401     222.27047      352.51342      296.52528      299.03819      339.31415      40475.099      25215.372      50           
   4182000  -7826.2992      114.12738     -7940.4266      0.61640401     226.44982      317.5987       307.6851       300.31783      337.54196      40652.326      25325.782      44           
   4183000  -7831.3982      111.89898     -7943.2971      0.61640401     222.02826      299.12691      296.43473      301.06236      337.72627      40505.426      25234.265      42           
   4184000  -7827.0598      113.45582     -7940.5156      0.61640401     225.11731      306.34904      307.57412      297.47503      331.6437       40628.194      25310.748      46           
   4185000  -7832.0942      111.09538     -7943.1895      0.61640401     220.43376      308.40113      292.68079      302.84405      327.66237      40549.798      25261.908      46           
   4186000  -7826.8771      113.38965     -7940.2668      0.61640401     224.98603      405.17947      305.52889      300.64526      313.20936      40459.588      25205.709      44           
   4187000  -7828.3715      110.75062     -7939.1221      0.61640401     219.7497       261.90387      299.873        294.73774      314.15663      40655.739      25327.907      40           
   4188000  -7830.1274      109.10729     -7939.2347      0.61640401     216.48904      351.35185      292.76749      287.8952       319.213        40447.458      25198.152      48           
   4189000  -7828.346       109.81495     -7938.161       0.61640401     217.89317      310.33752      297.37384      286.92244      324.32613      40605.513      25296.618      47           
   4190000  -7825.2059      114.44852     -7939.6544      0.61640401     227.08702      404.3996       310.22937      297.35969      331.69166      40351.9        25138.621      38           
   4191000  -7824.8278      113.23564     -7938.0635      0.61640401     224.68045      321.31055      301.21121      304.95022      330.75894      40729.945      25374.137      37           
   4192000  -7824.8662      115.48263     -7940.3488      0.61640401     229.13889      343.87817      312.89031      305.08337      324.12001      40415.654      25178.338      46           
   4193000  -7827.6448      112.23312     -7939.8779      0.61640401     222.69125      268.49849      296.4336       308.95145      321.71785      40606.442      25297.196      42           
   4194000  -7829.5583      110.06762     -7939.6259      0.61640401     218.3945       246.99431      297.35935      293.90074      314.19035      40349.699      25137.25       39           
   4195000  -7829.329       109.7761      -7939.1051      0.61640401     217.81607      296.53706      291.76134      297.86036      315.91915      40434.144      25189.858      45           
   4196000  -7828.6951      111.82095     -7940.516       0.61640401     221.87343      289.54705      296.8318       307.01049      312.47945      40611.473      25300.331      54           
   4197000  -7831.189       110.29001     -7941.479       0.61640401     218.83577      216.89992      305.28084      285.55781      314.391        40442.457      25195.036      47           
   4198000  -7829.1559      111.77112     -7940.927       0.61640401     221.77455      303.51661      301.63839      297.9441       315.68618      40769.762      25398.942      41           
   4199000  -7829.0885      110.78093     -7939.8694      0.61640401     219.80983      313.32333      288.0318       310.02399      317.0971       40423.455      25183.198      52           
   4200000  -7830.324       111.81672     -7942.1407      0.61640401     221.86504      338.41091      299.02434      298.28346      324.15726      40725.663      25371.469      55           
   4201000  -7832.0828      111.62563     -7943.7084      0.61640401     221.48587      299.24756      296.38129      304.03056      319.16605      40209.782      25050.083      54           
   4202000  -7831.3194      110.12958     -7941.449       0.61640401     218.51744      246.74899      291.56604      302.69371      318.65765      40843.381      25444.806      51           
   4203000  -7827.7161      113.74893     -7941.4651      0.61640401     225.69889      319.47137      307.20736      303.62802      316.29869      40570.82       25275.005      49           
   4204000  -7826.7427      111.88946     -7938.6321      0.61640401     222.00937      313.45793      293.62894      310.80303      314.20798      40486.065      25222.204      38           
   4205000  -7831.2952      109.26474     -7940.5599      0.61640401     216.80145      311.74593      297.32982      285.21417      315.61902      40839.141      25442.164      49           
   4206000  -7828.2673      111.13603     -7939.4034      0.61640401     220.51442      292.11807      301.72915      292.85994      318.45105      40493.812      25227.03       48           
   4207000  -7827.0056      113.56853     -7940.5741      0.61640401     225.34096      308.99886      299.62434      312.80166      321.72385      40702.917      25357.299      46           
   4208000  -7826.7531      113.0166      -7939.7697      0.61640401     224.24582      327.5228       301.74087      303.28763      326.78227      40290.477      25100.355      56           
   4209000  -7829.4669      110.91952     -7940.3864      0.61640401     220.08482      319.0355       298.00793      293.75943      326.10589      40899.168      25479.561      61           
   4210000  -7829.3205      112.38437     -7941.7049      0.61640401     222.99136      321.61997      299.47044      303.33425      322.16891      40591.356      25287.798      62           
   4211000  -7829.0273      112.39411     -7941.4214      0.61640401     223.01068      333.23115      298.48369      305.03447      318.57755      40664.619      25333.44       64           
   4212000  -7826.4533      114.8478      -7941.3011      0.61640401     227.87926      319.56126      314.38235      301.13734      316.40705      40146.659      25010.759      56           
   4213000  -7829.2697      111.83795     -7941.1077      0.61640401     221.90717      293.44615      298.47972      302.85075      319.61685      40651.061      25324.994      57           
   4214000  -7826.0108      114.35164     -7940.3625      0.61640401     226.89478      255.15023      312.26774      302.76467      321.08847      40586.439      25284.735      54           
   4215000  -7827.8144      113.60165     -7941.416       0.61640401     225.40668      275.95414      308.58198      302.01069      319.75603      40475.426      25215.575      58           
   4216000  -7828.4158      112.11414     -7940.53        0.61640401     222.45517      290.09002      304.51238      295.4452       322.91479      40627.367      25310.232      64           
   4217000  -7829.862       110.92091     -7940.7829      0.61640401     220.08759      329.26883      303.53123      288.32159      311.43841      40271.423      25088.484      63           
   4218000  -7828.8112      110.91754     -7939.7287      0.61640401     220.0809       358.06801      293.28316      300.33203      317.43522      40776.526      25403.156      63           
   4219000  -7831.1756      110.3385      -7941.5141      0.61640401     218.93198      353.23723      298.72402      287.8545       319.27896      40388.43       25161.378      61           
   4220000  -7830.0898      110.60906     -7940.6988      0.61640401     219.46882      302.16264      300.06094      292.75575      311.19627      40595.277      25290.241      56           
   4221000  -7829.4452      110.89402     -7940.3392      0.61640401     220.03424      310.61465      306.13312      285.30913      311.63127      40409.593      25174.563      62           
   4222000  -7826.1316      115.14889     -7941.2805      0.61640401     228.47669      299.97119      312.92745      308.12487      310.23749      40650.106      25324.398      57           
   4223000  -7830.2157      109.185       -7939.4007      0.61640401     216.64323      268.07181      291.6059       296.39752      312.71794      40542.534      25257.383      64           
   4224000  -7830.7217      110.55505     -7941.2767      0.61640401     219.36165      280.0312       301.82959      289.02603      320.62876      40541.633      25256.821      68           
   4225000  -7824.5655      114.61529     -7939.1808      0.61640401     227.41793      320.23857      307.97427      307.85462      320.48388      40637.446      25316.511      61           
   4226000  -7826.7327      113.83719     -7940.5699      0.61640401     225.87402      329.91438      306.66284      301.06983      330.95351      40382.647      25157.776      56           
   4227000  -7828.3477      114.38255     -7942.7302      0.61640401     226.95611      298.96694      308.96005      303.16311      332.50832      40712.258      25363.118      66           
   4228000  -7831.3422      110.11051     -7941.4527      0.61640401     218.4796       287.17224      294.9952       294.32827      324.37049      40294.497      25102.86       61           
   4229000  -7829.901       110.47163     -7940.3727      0.61640401     219.19613      349.6554       302.93333      283.15927      317.55146      40546.077      25259.59       63           
   4230000  -7827.8598      114.10252     -7941.9624      0.61640401     226.4005       318.45546      303.54144      313.07232      310.84234      40532.45       25251.101      64           
   4231000  -7828.6956      115.16028     -7943.8559      0.61640401     228.49929      304.13557      310.96907      312.10357      305.24698      40722.288      25369.367      62           
   4232000  -7829.8643      111.15459     -7941.0189      0.61640401     220.55125      342.97892      294.99103      303.34147      306.61235      40355.204      25140.679      58           
   4233000  -7830.4442      111.56504     -7942.0093      0.61640401     221.36565      263.27496      301.59569      300.05424      309.10424      40629.913      25311.819      50           
   4234000  -7832.3308      108.63726     -7940.9681      0.61640401     215.5564       320.23427      287.40629      294.97278      315.24705      40640.703      25318.54       56           
   4235000  -7828.9494      111.63385     -7940.5832      0.61640401     221.50218      317.43453      297.52637      301.89267      317.4687       40215.308      25053.526      56           
   4236000  -7826.5858      111.62521     -7938.211       0.61640401     221.48504      335.98839      299.68022      295.11199      327.9283       40743.122      25382.346      59           
   4237000  -7826.5053      112.68054     -7939.1858      0.61640401     223.57902      312.84233      299.69336      304.85486      325.63147      40465.923      25209.655      56           
   4238000  -7829.6623      110.00844     -7939.6707      0.61640401     218.27708      330.33249      298.96844      286.67544      318.29639      40841.401      25443.572      56           
   4239000  -7829.9146      111.25171     -7941.1663      0.61640401     220.74395      260.50044      300.17312      299.06186      314.22775      40458.461      25205.006      59           
   4240000  -7831.6075      108.54606     -7940.1536      0.61640401     215.37544      291.05542      291.05923      291.9416       308.63032      40711.341      25362.547      63           
   4241000  -7827.3253      114.25132     -7941.5766      0.61640401     226.69575      308.81153      309.44242      306.7796       307.42371      40124.405      24996.895      59           
   4242000  -7830.4595      111.25644     -7941.7159      0.61640401     220.75334      314.26339      298.94552      297.92944      314.13117      40742.38       25381.884      60           
   4243000  -7835.7678      109.43779     -7945.2056      0.61640401     217.1448       243.6595       293.79169      295.22227      317.31576      40439.362      25193.108      60           
   4244000  -7829.3141      113.63332     -7942.9474      0.61640401     225.4695       303.84271      293.80785      322.56184      320.14177      40489.745      25224.496      65           
   4245000  -7833.0636      109.3189      -7942.3825      0.61640401     216.90891      256.10225      292.72868      293.5366       325.21805      40537.15       25254.029      66           
   4246000  -7828.3898      112.05741     -7940.4472      0.61640401     222.34261      337.65764      300.87434      297.08593      324.6352       40387.003      25160.489      67           
   4247000  -7830.4373      109.51275     -7939.95        0.61640401     217.29353      319.13154      291.32084      294.98121      318.31133      40819.436      25429.888      53           
   4248000  -7831.2321      110.35816     -7941.5903      0.61640401     218.97099      301.12382      299.40689      292.83115      307.49784      40151.97       25014.068      53           
   4249000  -7826.934       112.35313     -7939.2871      0.61640401     222.92937      245.02111      306.90691      299.44786      306.90622      40873.591      25463.627      50           
   4250000  -7827.6754      113.50234     -7941.1778      0.61640401     225.20961      283.876        310.02267      300.98453      310.60577      40296.609      25104.175      62           
   4251000  -7829.5653      111.42798     -7940.9933      0.61640401     221.0937       244.46765      300.3882       302.08025      309.65543      40513.19       25239.102      59           
   4252000  -7833.5828      110.03961     -7943.6224      0.61640401     218.33892      260.40692      290.60127      303.66983      315.46514      40518.588      25242.464      54           
   4253000  -7835.8233      108.39503     -7944.2184      0.61640401     215.07578      328.2558       288.72517      289.40492      320.35993      40520.448      25243.623      55           
   4254000  -7830.1475      111.49087     -7941.6384      0.61640401     221.21849      308.38999      298.79688      298.933        319.35702      40728.99       25373.542      55           
   4255000  -7830.1241      108.99026     -7939.1144      0.61640401     216.25682      292.11552      296.88757      283.54525      320.64562      40314.31       25115.202      56           
   4256000  -7829.8231      110.78164     -7940.6047      0.61640401     219.81124      354.08687      296.12326      295.38505      318.73177      40861.561      25456.132      56           
   4257000  -7830.5619      112.37122     -7942.9331      0.61640401     222.96527      279.14349      303.85287      300.15808      318.04156      40321.675      25119.791      61           
   4258000  -7831.8175      112.07613     -7943.8936      0.61640401     222.37976      226.39097      301.0773       304.72126      317.21352      40582.047      25281.999      54           
   4259000  -7827.9653      111.15702     -7939.1223      0.61640401     220.55607      258.56737      298.41173      300.20078      318.38393      40365.497      25147.091      62           
   4260000  -7831.6783      109.14595     -7940.8243      0.61640401     216.56574      283.63665      288.92915      296.25776      323.60785      40570.423      25274.757      60           
   4261000  -7830.7864      109.56898     -7940.3553      0.61640401     217.40512      330.49895      293.49986      289.7427       324.56732      40502.65       25232.536      63           
   4262000  -7826.7268      113.75686     -7940.4837      0.61640401     225.71464      315.97305      302.80135      307.58102      327.79491      40387.412      25160.744      65           
   4263000  -7827.9884      112.10244     -7940.0908      0.61640401     222.43196      282.63364      307.00184      293.89443      314.74527      40740.843      25380.926      58           
   4264000  -7829.8731      111.21544     -7941.0885      0.61640401     220.67199      269.01012      300.88622      296.22775      316.94053      40282.137      25095.159      51           
   4265000  -7828.1148      114.55908     -7942.6739      0.61640401     227.30638      325.77599      314.72372      298.80285      313.69079      40798.737      25416.993      54           
   4266000  -7828.2101      111.78098     -7939.991       0.61640401     221.79412      279.09267      299.81029      301.34309      318.34027      40186.601      25035.642      55           
   4267000  -7828.7373      111.284       -7940.0213      0.61640401     220.80803      316.62567      296.6209       300.32862      318.80718      40703.108      25357.418      59           
   4268000  -7827.4544      111.29835     -7938.7528      0.61640401     220.83649      254.01881      302.78726      293.1649       323.76907      40490.178      25224.766      52           
   4269000  -7826.454       113.342       -7939.7961      0.61640401     224.89148      328.04909      303.00865      304.40855      324.02768      40662.818      25332.318      54           
   4270000  -7829.8293      111.49514     -7941.3244      0.61640401     221.22696      342.47599      296.88564      299.03686      322.95596      40497.718      25229.463      60           
   4271000  -7826.482       113.62839     -7940.1104      0.61640401     225.45973      323.51917      308.80862      298.85049      321.21839      40318.408      25117.756      62           
   4272000  -7827.4143      111.57019     -7938.9845      0.61640401     221.37589      278.99766      306.6608       289.97366      317.32713      40828.19       25435.342      56           
   4273000  -7831.198       111.99056     -7943.1886      0.61640401     222.20997      295.11429      301.13114      302.60304      308.37603      40270.284      25087.775      52           
   4274000  -7829.5906      111.23658     -7940.8272      0.61640401     220.71394      284.92438      301.80806      297.71101      303.25772      40889.681      25473.65       53           
   4275000  -7833.8487      107.63282     -7941.4815      0.61640401     213.56341      309.64131      286.67263      291.48028      305.00601      40348.706      25136.631      53           
   4276000  -7829.9758      112.61615     -7942.5919      0.61640401     223.45126      344.75231      301.57968      305.16007      304.47992      40664.657      25333.464      52           
   4277000  -7832.2941      110.73119     -7943.0253      0.61640401     219.71115      330.30664      293.91066      301.21787      312.34062      40399.884      25168.514      53           
   4278000  -7830.4783      112.23236     -7942.7107      0.61640401     222.68974      312.25129      297.61363      307.88232      312.20417      40690.826      25349.766      58           
   4279000  -7827.704       115.09886     -7942.8029      0.61640401     228.3774       322.91151      306.43475      315.31098      313.80268      40585.076      25283.886      56           
   4280000  -7828.5075      110.41509     -7938.9226      0.61640401     219.08395      286.66539      296.99896      295.19698      317.44942      40202.372      25045.467      56           
   4281000  -7831.1088      111.0391      -7942.1479      0.61640401     220.3221       325.05185      291.81747      306.47359      313.81876      40783.608      25407.568      58           
   4282000  -7832.5829      110.61939     -7943.2023      0.61640401     219.48932      265.52449      300.61437      294.63016      309.10615      40261.038      25082.015      59           
   4283000  -7827.9286      112.98981     -7940.9185      0.61640401     224.19267      339.75278      299.11734      311.34195      306.25536      40979.1        25529.357      56           
   4284000  -7831.815       111.7343      -7943.5493      0.61640401     221.7015       323.20904      297.24707      306.55723      302.84288      40479.404      25218.054      48           
   4285000  -7830.4169      111.42642     -7941.8433      0.61640401     221.09061      303.04079      295.11397      308.49573      302.3478       40562.888      25270.063      42           
   4286000  -7829.941       110.82639     -7940.7673      0.61640401     219.90005      290.14494      295.75867      302.4883       306.20357      40479.114      25217.873      43           
   4287000  -7830.9         112.83662     -7943.7366      0.61640401     223.88871      269.43177      298.64305      313.40448      309.12823      40412.305      25176.252      41           
   4288000  -7826.9137      113.76798     -7940.6817      0.61640401     225.73671      266.71239      302.18059      314.05723      314.88951      40744.153      25382.988      48           
   4289000  -7832.0519      108.7185      -7940.7704      0.61640401     215.7176       246.93692      290.20199      294.83595      314.13644      40274.941      25090.676      43           
   4290000  -7830.415       110.99456     -7941.4095      0.61640401     220.23373      273.16957      300.52782      297.26955      307.62444      40924.342      25495.243      51           
   4291000  -7824.0182      114.4873      -7938.5055      0.61640401     227.16396      262.23932      310.37692      310.41219      303.79632      40213.653      25052.495      53           
   4292000  -7829.791       113.75561     -7943.5466      0.61640401     225.71215      296.04506      305.02548      311.34042      303.08055      40644.916      25321.165      52           
   4293000  -7826.989       112.41384     -7939.4028      0.61640401     223.04984      254.83027      301.17792      309.99201      300.84017      40524.123      25245.913      61           
   4294000  -7826.2295      112.95656     -7939.186       0.61640401     224.1267       300.08359      297.55915      316.44832      302.34003      40633.214      25313.875      49           
   4295000  -7829.465       110.33172     -7939.7967      0.61640401     218.91852      290.62972      300.42128      291.27388      308.89079      40742.529      25381.977      53           
   4296000  -7830.9968      109.97178     -7940.9686      0.61640401     218.20433      346.97772      293.49521      295.92861      310.47436      40272.7        25089.28       48           
   4297000  -7831.6146      110.3229      -7941.9375      0.61640401     218.90103      326.49134      296.5744       295.34357      307.75463      41077.249      25590.502      57           
   4298000  -7827.931       111.01767     -7938.9487      0.61640401     220.27957      332.75464      301.2769       292.93367      308.75435      40102.425      24983.202      58           
   4299000  -7829.584       111.30367     -7940.8876      0.61640401     220.84705      319.18566      294.14757      306.15904      309.86808      40693.981      25351.732      59           
   4300000  -7830.4883      112.42291     -7942.9113      0.61640401     223.06784      266.75152      308.34081      296.43329      309.52471      40396.895      25166.652      57           
   4301000  -7829.6321      111.49526     -7941.1274      0.61640401     221.2272       281.53263      305.62566      293.57295      305.44781      40801.117      25418.476      52           
   4302000  -7826.7759      113.11584     -7939.8917      0.61640401     224.44273      262.83875      300.29167      315.00193      304.03263      40430.01       25187.282      52           
   4303000  -7831.6809      110.1748      -7941.8557      0.61640401     218.60717      273.09893      303.19863      290.09223      297.25895      40285.328      25097.147      67           
   4304000  -7829.5439      112.66022     -7942.2041      0.61640401     223.5387       282.65957      307.0453       301.23036      302.47793      40715.943      25365.414      68           
   4305000  -7834.2197      109.09528     -7943.315       0.61640401     216.4652       282.53047      290.83714      298.809        301.1943       40232.579      25064.285      69           
   4306000  -7829.8678      112.57181     -7942.4396      0.61640401     223.36327      293.75878      310.30559      294.58232      304.08526      40744.395      25383.139      65           
   4307000  -7828.0472      112.27801     -7940.3252      0.61640401     222.78033      268.43842      302.25872      304.69505      308.37658      39933.492      24877.959      60           
   4308000  -7825.5444      113.45158     -7938.996       0.61640401     225.10891      278.87382      303.609        311.3192       306.65385      41090.504      25598.76       59           
   4309000  -7830.1887      111.45866     -7941.6473      0.61640401     221.15459      280.10105      299.71475      302.00074      307.00004      40332.86       25126.759      60           
   4310000  -7830.4833      111.32223     -7941.8056      0.61640401     220.88387      278.60059      297.13074      305.10175      306.02982      40571.567      25275.47       60           
   4311000  -7830.4947      109.61884     -7940.1136      0.61640401     217.50403      259.37013      297.08335      293.35472      307.61277      40511.759      25238.21       67           
   4312000  -7830.7539      112.10018     -7942.854       0.61640401     222.42747      308.47979      304.21343      298.17503      308.32866      40376.861      25154.171      60           
   4313000  -7830.7957      109.72648     -7940.5222      0.61640401     217.71761      257.11389      294.43484      297.09707      311.90761      40782.896      25407.125      64           
   4314000  -7832.9444      109.78216     -7942.7265      0.61640401     217.8281       276.82419      294.91021      295.37793      311.61489      40177.298      25029.846      50           
   4315000  -7830.355       109.52638     -7939.8814      0.61640401     217.32058      285.9969       294.03534      295.34404      308.02116      40964.525      25520.277      59           
   4316000  -7832.9352      110.56021     -7943.4954      0.61640401     219.37189      277.8466       302.07095      293.52626      299.80728      40118.699      24993.34       57           
   4317000  -7833.8116      107.71414     -7941.5258      0.61640401     213.72476      336.91657      292.27571      283.19017      300.38756      40873.951      25463.85       61           
   4318000  -7832.5984      109.75277     -7942.3512      0.61640401     217.76979      318.3512       293.17801      298.2247       300.75807      40130.126      25000.459      59           
   4319000  -7829.1312      110.59149     -7939.7227      0.61640401     219.43396      347.67839      295.03621      299.33093      303.87401      40796.335      25415.497      59           
   4320000  -7833.4182      111.30109     -7944.7193      0.61640401     220.84194      351.7444       302.22739      294.37492      300.91883      40532.601      25251.194      61           
   4321000  -7831.3335      108.82162     -7940.1551      0.61640401     215.92221      322.85075      293.70331      289.7436       303.75865      40305.222      25109.541      48           
   4322000  -7831.337       112.78974     -7944.1267      0.61640401     223.79568      321.78641      300.76168      309.4128       301.6796       40916.104      25490.111      57           
   4323000  -7832.4091      108.44615     -7940.8553      0.61640401     215.17722      295.12477      291.62504      293.13958      296.16654      40134.664      25003.286      67           
   4324000  -7833.2576      108.92023     -7942.1779      0.61640401     216.11787      269.60549      294.74271      293.56718      296.00402      40909.848      25486.214      60           
   4325000  -7830.3239      111.1774      -7941.5014      0.61640401     220.59652      300.70858      298.71067      301.58307      301.32142      40282.212      25095.206      56           
   4326000  -7829.5978      112.65213     -7942.2499      0.61640401     223.52265      255.67561      299.67631      313.11575      303.1266       40801.035      25418.425      54           
   4327000  -7830.2153      112.6324      -7942.8477      0.61640401     223.4835       247.1          306.73998      302.77633      304.16276      40237.754      25067.51       57           
   4328000  -7828.1948      112.37012     -7940.5649      0.61640401     222.96308      280.11908      310.79255      293.28333      302.82456      40499.724      25230.713      57           
   4329000  -7833.0844      109.02689     -7942.1113      0.61640401     216.3295       294.02832      300.28295      284.37817      297.28833      40682.555      25344.614      55           
   4330000  -7831.6148      109.03975     -7940.6545      0.61640401     216.35501      275.47985      300.78498      286.36819      289.98369      40333.153      25126.942      50           
   4331000  -7828.9467      109.57395     -7938.5207      0.61640401     217.41497      252.31868      296.48692      298.14378      289.54279      40834.357      25439.184      52           
   4332000  -7834.0686      107.14631     -7941.2149      0.61640401     212.59808      275.85232      290.36892      287.80189      290.31162      40118.227      24993.046      64           
   4333000  -7827.0373      113.65501     -7940.6923      0.61640401     225.51255      284.37693      310.29622      306.26026      291.2055       40875.832      25465.022      53           
   4334000  -7829.3454      110.10127     -7939.4466      0.61640401     218.46127      275.80844      292.71786      306.02333      292.16666      40212.187      25051.581      59           
   4335000  -7830.0898      110.11941     -7940.2092      0.61640401     218.49726      247.81728      296.28801      301.05314      298.3814       40735.049      25377.317      62           
   4336000  -7832.4827      108.96421     -7941.447       0.61640401     216.20514      279.9759       291.57188      297.56935      297.81456      40516.881      25241.401      59           
   4337000  -7828.9253      112.54101     -7941.4663      0.61640401     223.30217      302.25756      296.06791      315.86236      300.63296      40466.913      25210.272      52           
   4338000  -7834.6653      110.85542     -7945.5208      0.61640401     219.95765      277.08842      304.87403      292.255        297.46279      40631.74       25312.957      59           
   4339000  -7830.3285      109.89474     -7940.2232      0.61640401     218.05148      242.53402      291.66648      307.02137      294.56517      40278.258      25092.743      53           
   4340000  -7830.2205      108.95352     -7939.174       0.61640401     216.18392      272.80928      301.396        283.49143      296.10981      40758.423      25391.878      52           
   4341000  -7830.3455      111.77581     -7942.1214      0.61640401     221.78388      282.50688      302.90198      302.13413      295.97085      40171.865      25026.462      58           
   4342000  -7828.6385      112.76528     -7941.4037      0.61640401     223.74715      281.97515      309.13082      299.14007      301.39574      40957.793      25516.083      63           
   4343000  -7828.4412      111.36692     -7939.8081      0.61640401     220.97255      285.68835      299.20301      300.60639      312.45302      40373.568      25152.12       68           
   4344000  -7830.369       112.44421     -7942.8132      0.61640401     223.11009      248.52262      303.93097      302.12955      321.3191       40648.285      25323.264      69           
   4345000  -7829.9472      113.06094     -7943.0081      0.61640401     224.3338       276.93338      302.85327      307.20247      318.03325      40602.542      25294.767      69           
   4346000  -7832.9333      108.74476     -7941.6781      0.61640401     215.76971      264.069        292.54271      290.68921      318.33723      40410.253      25174.974      65           
   4347000  -7831.071       110.23423     -7941.3052      0.61640401     218.72508      232.49588      292.70527      304.56668      313.03956      40642.958      25319.945      60           
   4348000  -7828.6954      112.13494     -7940.8304      0.61640401     222.49645      319.30754      297.48964      307.75386      308.22571      40237.535      25067.373      66           
   4349000  -7830.8775      109.79787     -7940.6754      0.61640401     217.85928      257.75255      296.12485      297.1676       304.55721      40763.242      25394.88       71           
   4350000  -7829.2252      109.2178      -7938.443       0.61640401     216.7083       278.04256      289.29891      301.13435      306.388        40080.573      24969.588      70           
   4351000  -7826.5401      112.74043     -7939.2805      0.61640401     223.69784      317.73345      303.83533      302.22024      311.27253      40842.039      25443.97       74           
   4352000  -7830.2668      112.20399     -7942.4708      0.61640401     222.63346      266.89401      306.41743      295.23398      323.07371      40454.805      25202.729      74           
   4353000  -7831.3182      111.08594     -7942.4042      0.61640401     220.41503      353.16         299.18184      292.20017      320.18014      40747.989      25385.378      73           
   4354000  -7833.2894      110.26593     -7943.5553      0.61640401     218.78798      355.07807      291.40998      297.33981      320.73736      40437.936      25192.22       75           
   4355000  -7828.2788      111.94143     -7940.2202      0.61640401     222.11248      318.52451      293.9894       309.32596      318.19399      40344.329      25133.904      76           
   4356000  -7828.3392      114.64581     -7942.985       0.61640401     227.47848      301.09561      305.58193      315.5267       309.85701      40707.4        25360.091      79           
   4357000  -7830.2207      111.01804     -7941.2387      0.61640401     220.28031      273.92852      304.95169      290.06849      314.93027      40265.738      25084.943      78           
   4358000  -7830.5532      110.17123     -7940.7244      0.61640401     218.60009      288.64863      297.72586      295.42069      305.25526      40929.514      25498.466      71           
   4359000  -7831.5131      110.14346     -7941.6565      0.61640401     218.54498      277.86763      295.50067      298.31442      310.32558      40296.678      25104.218      81           
   4360000  -7828.0498      113.84917     -7941.899       0.61640401     225.8978       287.17508      306.49522      307.87533      314.78767      40505.529      25234.329      69           
   4361000  -7832.623       110.31899     -7942.942       0.61640401     218.89326      260.77794      294.053        301.3664       315.68222      40329.098      25124.415      68           
   4362000  -7830.4481      111.19346     -7941.6415      0.61640401     220.62838      261.28025      302.66527      295.01018      316.45811      40638.14       25316.944      71           
   4363000  -7832.0416      111.73111     -7943.7727      0.61640401     221.69516      317.62649      297.98451      303.07402      312.75264      40622.408      25307.143      66           
   4364000  -7828.0436      111.58255     -7939.6262      0.61640401     221.40041      296.86573      298.45356      304.05424      306.12437      40212.985      25052.079      60           
   4365000  -7829.2312      111.06248     -7940.2937      0.61640401     220.36849      312.83581      297.10608      302.6268       300.20792      40691.92       25350.448      63           
   4366000  -7830.4381      109.33476     -7939.7729      0.61640401     216.94037      349.82299      288.14971      301.19574      297.8501       40570.699      25274.929      65           
   4367000  -7826.6563      112.2756      -7938.9319      0.61640401     222.77555      254.6349       297.69033      313.69444      300.80263      40644.912      25321.163      50           
   4368000  -7829.8843      110.73727     -7940.6215      0.61640401     219.7232       287.87946      302.41305      293.19058      302.15037      40309.375      25112.128      54           
   4369000  -7829.0629      112.4594      -7941.5223      0.61640401     223.14025      300.07396      299.94657      308.33737      305.63508      40690.624      25349.64       51           
   4370000  -7835.1331      109.29555     -7944.4286      0.61640401     216.86257      239.26852      289.84676      301.78217      308.534        40719.335      25367.527      50           
   4371000  -7832.6107      111.35675     -7943.9675      0.61640401     220.95238      266.88736      299.69421      300.76179      310.55394      40549.432      25261.68       50           
   4372000  -7829.653       112.82934     -7942.4823      0.61640401     223.87427      286.4704       302.29403      306.21502      313.42778      40548.412      25261.045      47           
   4373000  -7832.216       108.17553     -7940.3916      0.61640401     214.64025      277.41686      291.45272      288.51188      310.69699      40197.72       25042.569      49           
   4374000  -7826.6412      112.66488     -7939.3061      0.61640401     223.54794      323.96503      297.32137      311.58118      308.98269      40798.953      25417.128      60           
   4375000  -7833.9354      108.27421     -7942.2096      0.61640401     214.83605      263.48984      281.49356      305.90177      306.39034      40216.512      25054.276      53           
   4376000  -7830.4042      109.71939     -7940.1236      0.61640401     217.70355      245.80027      293.82796      300.05034      302.57159      40657.574      25329.051      48           
   4377000  -7826.1862      115.50112     -7941.6873      0.61640401     229.17558      326.1163       315.30762      307.42603      304.64347      40521.061      25244.006      45           
   4378000  -7825.4953      114.34873     -7939.844       0.61640401     226.88901      299.0455       316.72303      298.14465      303.70025      40510.543      25237.453      56           
   4379000  -7823.913       113.49182     -7937.4048      0.61640401     225.18874      370.63557      304.18803      306.34437      305.09364      40344.602      25134.074      53           
   4380000  -7828.7314      112.0112      -7940.7426      0.61640401     222.25093      302.36553      296.30103      308.73845      311.7495       40609.443      25299.066      59           
   4381000  -7829.9587      111.67645     -7941.6352      0.61640401     221.58672      381.88074      288.07584      313.28482      315.33784      40711.739      25362.795      56           
   4382000  -7826.2431      111.57226     -7937.8154      0.61640401     221.37999      337.49756      296.07114      303.34788      314.32007      40247.224      25073.409      53           
   4383000  -7826.0718      114.15725     -7940.229       0.61640401     226.50909      290.68902      305.58849      313.40523      304.82651      40765.861      25396.512      55           
   4384000  -7828.6102      110.37555     -7938.9858      0.61640401     219.0055       275.31053      289.74667      309.93831      301.80304      40300.914      25106.857      49           
   4385000  -7828.8233      111.27168     -7940.0949      0.61640401     220.78358      304.52226      310.10048      285.61799      299.25306      40802.289      25419.206      45           
   4386000  -7826.7446      112.99264     -7939.7372      0.61640401     224.19829      312.36164      307.58691      301.08309      302.75799      40244.232      25071.545      48           
   4387000  -7824.0286      113.07297     -7937.1015      0.61640401     224.35767      305.7251       310.42491      295.90328      310.34114      40576.21       25278.363      58           
   4388000  -7826.592       113.53671     -7940.1287      0.61640401     225.27782      292.03249      305.03226      306.83237      315.60165      40456.964      25204.074      56           
   4389000  -7830.4651      112.61197     -7943.0771      0.61640401     223.44296      312.53826      298.75803      307.21589      319.38747      40491.424      25225.542      51           
   4390000  -7831.4719      109.23771     -7940.7096      0.61640401     216.74781      323.94197      288.47411      295.38909      324.53503      40655.745      25327.911      46           
   4391000  -7830.4596      110.92574     -7941.3853      0.61640401     220.09716      249.46627      298.79433      297.25433      318.1521       40473.177      25214.175      41           
   4392000  -7827.5629      112.88393     -7940.4468      0.61640401     223.98257      290.81901      300.67137      310.0775       308.44768      40812.022      25425.269      44           
   4393000  -7827.9711      110.08567     -7938.0567      0.61640401     218.43032      283.45872      295.53795      298.49635      302.85782      40105.01       24984.812      50           
   4394000  -7830.8677      109.07761     -7939.9453      0.61640401     216.43014      259.35344      293.12026      296.50676      299.13294      40944.93       25508.069      47           
   4395000  -7828.3223      112.02755     -7940.3499      0.61640401     222.28337      268.03593      301.39417      306.03513      299.62755      40273.755      25089.938      53           
   4396000  -7830.6636      111.12491     -7941.7885      0.61640401     220.49235      240.23301      302.14776      296.14286      311.69492      40734.487      25376.967      47           
   4397000  -7828.2644      112.18371     -7940.4481      0.61640401     222.59322      305.47507      306.4425       293.80399      315.51233      40456.494      25203.781      48           
   4398000  -7829.7928      111.35614     -7941.149       0.61640401     220.95117      338.36013      296.41576      298.4643       324.68964      40447.546      25198.207      57           
   4399000  -7831.0024      110.87376     -7941.8762      0.61640401     219.99403      280.06498      297.66801      296.12454      324.16357      40432.643      25188.922      51           
   4400000  -7827.2948      113.40222     -7940.697       0.61640401     225.01097      290.98132      298.64589      314.5001       319.14043      40545.801      25259.418      51           
   4401000  -7828.4806      112.5112      -7940.9918      0.61640401     223.24302      284.0832       311.92611      289.74624      313.20735      40694.502      25352.057      51           
   4402000  -7829.8439      110.97479     -7940.8187      0.61640401     220.19449      294.2343       294.51997      304.41729      310.23077      40334.196      25127.591      55           
   4403000  -7827.389       111.29764     -7938.6867      0.61640401     220.83508      257.54732      300.8774       300.44322      305.03434      40765.211      25396.107      52           
   4404000  -7830.1009      108.81412     -7938.9151      0.61640401     215.90732      300.83744      297.83505      283.54205      307.47777      40191.729      25038.836      62           
   4405000  -7828.2294      110.94659     -7939.176       0.61640401     220.13854      298.28338      301.20568      294.29494      309.6163       40773.416      25401.219      67           
   4406000  -7829.8799      111.12854     -7941.0084      0.61640401     220.49957      336.0273       292.51486      305.44232      312.52699      40324.627      25121.63       68           
   4407000  -7833.7822      110.5902      -7944.3724      0.61640401     219.4314       422.68831      293.10921      295.57609      309.37641      40552.621      25263.667      69           
   4408000  -7834.3234      109.12456     -7943.448       0.61640401     216.52331      354.94963      284.73836      302.7232       304.13628      40653.966      25326.803      69           
   4409000  -7830.3836      110.4278      -7940.8114      0.61640401     219.10916      353.29369      302.87817      286.70013      301.52002      40404.709      25171.52       59           
   4410000  -7827.4809      111.21588     -7938.6968      0.61640401     220.67285      279.12235      299.50894      302.57525      298.71995      40573.109      25276.431      62           
   4411000  -7828.6826      110.52359     -7939.2062      0.61640401     219.29922      280.42427      300.90616      294.75526      300.3493       40283.914      25096.266      59           
   4412000  -7833.6931      109.70558     -7943.3987      0.61640401     217.67614      329.10496      300.19867      287.73615      294.76077      40721.647      25368.967      75           
   4413000  -7828.0456      113.60608     -7941.6517      0.61640401     225.41546      345.99131      304.51837      309.0328       298.17998      40389.794      25162.228      66           
   4414000  -7831.7633      110.58004     -7942.3433      0.61640401     219.41124      329.52047      294.11271      302.75124      297.96089      40662.925      25332.384      71           
   4415000  -7828.9323      113.02694     -7941.9593      0.61640401     224.26634      311.41446      303.7556       307.24187      301.56471      40377.344      25154.472      64           
   4416000  -7833.2191      109.73874     -7942.9578      0.61640401     217.74195      343.58754      287.02738      303.43889      310.40507      40590.917      25287.525      64           
   4417000  -7830.9814      112.66955     -7943.6509      0.61640401     223.55722      347.43249      299.61265      307.99535      303.60548      40533.244      25251.595      65           
   4418000  -7831.9076      110.72597     -7942.6335      0.61640401     219.70079      288.63342      305.57486      288.98531      300.16549      40376.744      25154.098      66           
   4419000  -7831.4053      110.3995      -7941.8048      0.61640401     219.05302      315.50066      292.14781      306.60415      292.86103      40789.536      25411.261      64           
   4420000  -7828.3231      112.07746     -7940.4006      0.61640401     222.3824       308.56389      299.48393      308.41748      293.80074      40321.713      25119.815      69           
   4421000  -7831.6796      109.8212      -7941.5008      0.61640401     217.90556      294.26465      295.9054       296.79857      297.73052      40676.21       25340.661      65           
   4422000  -7826.919       112.03818     -7938.9572      0.61640401     222.30446      270.58576      304.42536      302.29199      298.11999      40384.954      25159.213      70           
   4423000  -7832.4076      109.56297     -7941.9706      0.61640401     217.39319      294.60241      293.31766      301.22522      286.81661      40596.298      25290.877      68           
   4424000  -7830.9737      110.883       -7941.8567      0.61640401     220.01237      280.25434      299.05544      302.64301      290.49901      40489.942      25224.619      62           
   4425000  -7830.3125      110.30947     -7940.6219      0.61640401     218.87438      291.23431      303.6007       290.90333      290.29468      40656.451      25328.351      57           
   4426000  -7834.3536      107.46608     -7941.8197      0.61640401     213.23257      260.56726      287.52585      296.49109      285.52725      40639.471      25317.773      63           
   4427000  -7825.5804      114.00174     -7939.5821      0.61640401     226.20052      284.98329      311.63387      309.05985      282.25443      40620.125      25305.721      73           
   4428000  -7828.161       111.42725     -7939.5882      0.61640401     221.09225      333.3606       308.62456      293.47906      270.86142      40472.176      25213.551      71           
   4429000  -7827.5615      113.38031     -7940.9418      0.61640401     224.96749      307.12088      313.5669       303.06328      269.03275      40429.074      25186.699      71           
   4430000  -7835.4863      108.37849     -7943.8648      0.61640401     215.04295      335.58748      293.90205      290.87744      277.93385      40653.301      25326.389      68           
   4431000  -7830.4789      110.9385      -7941.4174      0.61640401     220.12248      337.34555      293.43089      309.78216      284.42595      40445.326      25196.823      56           
   4432000  -7829.613       112.77654     -7942.3895      0.61640401     223.76949      317.18716      307.76739      301.83325      290.02326      40718.803      25367.196      60           
   4433000  -7832.7061      111.01695     -7943.723       0.61640401     220.27814      301.7234       301.00381      300.62447      285.55199      40412.51       25176.38       66           
   4434000  -7833.2233      109.37374     -7942.597       0.61640401     217.01771      345.85264      293.99715      295.52034      287.10731      40590.217      25287.089      66           
   4435000  -7830.5519      109.7824      -7940.3343      0.61640401     217.82857      305.12154      296.64135      298.52069      282.05973      40518.094      25242.157      58           
   4436000  -7833.9059      109.1877      -7943.0937      0.61640401     216.64859      308.80505      292.84146      298.19279      287.19346      40585.173      25283.946      62           
   4437000  -7834.4501      106.21741     -7940.6675      0.61640401     210.75497      336.06044      287.78505      283.92948      279.79667      40676.039      25340.554      54           
   4438000  -7831.5789      111.37155     -7942.9504      0.61640401     220.98173      300.28814      298.87366      305.94247      288.21907      40483.808      25220.798      58           
   4439000  -7828.2431      113.08679     -7941.3299      0.61640401     224.3851       286.41507      308.24359      305.505        288.9715       40754.709      25389.565      65           
   4440000  -7831.1679      110.15995     -7941.3279      0.61640401     218.5777       305.20267      300.22635      295.68669      282.87777      40206.291      25047.908      61           
   4441000  -7827.8898      111.71016     -7939.5999      0.61640401     221.6536       315.98532      301.01748      304.22704      288.46808      40866.915      25459.467      66           
   4442000  -7832.2176      109.9377      -7942.1552      0.61640401     218.13671      316.3434       298.04441      295.63491      287.94768      40315.924      25116.208      58           
   4443000  -7835.0664      107.55623     -7942.6226      0.61640401     213.41144      282.82541      292.59142      287.32898      289.34451      40609.808      25299.294      56           
   4444000  -7830.0761      111.47775     -7941.5539      0.61640401     221.19246      315.41312      303.52601      297.60734      294.18746      40602.036      25294.452      54           
   4445000  -7830.7684      110.02191     -7940.7903      0.61640401     218.3038       238.94827      298.48685      298.19204      294.60811      40470.458      25212.48       57           
   4446000  -7833.562       109.12581     -7942.6878      0.61640401     216.52577      297.74811      295.61857      292.37519      295.2114       40574.934      25277.567      62           
   4447000  -7831.8812      109.56339     -7941.4445      0.61640401     217.39402      309.84316      297.04929      293.85663      291.02285      40473.863      25214.602      61           
   4448000  -7829.9273      112.0616      -7941.9889      0.61640401     222.35092      299.03516      302.36689      304.24451      295.79243      40588.671      25286.126      61           
   4449000  -7827.3861      110.45451     -7937.8406      0.61640401     219.16217      277.42098      298.03466      299.34476      297.30345      40400.402      25168.836      55           
   4450000  -7832.6633      110.19601     -7942.8593      0.61640401     218.64924      324.20702      296.54259      296.66258      299.23389      40892.753      25475.564      56           
   4451000  -7832.8101      109.62796     -7942.438       0.61640401     217.52214      281.62401      298.433        291.61476      299.78807      40350.883      25137.987      50           
   4452000  -7832.7479      109.17314     -7941.921       0.61640401     216.6197       286.18035      295.6379       292.66681      297.84755      40619.961      25305.618      53           
   4453000  -7830.4799      109.96033     -7940.4402      0.61640401     218.18162      252.76489      292.18533      305.90087      295.77919      40690.43       25349.52       52           
   4454000  -7831.0251      109.74648     -7940.7715      0.61640401     217.7573       298.77461      298.97812      292.95246      291.23449      40615.321      25302.728      60           
   4455000  -7830.7647      110.20226     -7940.967       0.61640401     218.66164      310.20439      302.79215      289.14101      295.15033      40437.612      25192.018      54           
   4456000  -7827.8975      111.87711     -7939.7746      0.61640401     221.98487      244.49055      306.89218      297.85328      298.71042      40534.802      25252.566      49           
   4457000  -7831.0352      111.74167     -7942.7769      0.61640401     221.71614      307.86132      300.87691      301.45668      304.42644      40568.562      25273.598      54           
   4458000  -7834.1423      109.02375     -7943.1661      0.61640401     216.32327      281.16809      294.87894      291.17095      305.49812      40477.856      25217.089      59           
   4459000  -7831.8798      110.95709     -7942.8368      0.61640401     220.15937      258.69713      292.25353      311.36547      302.07153      40675.589      25340.274      49           
   4460000  -7821.4955      115.44347     -7936.939       0.61640401     229.06118      289.13123      310.03187      316.8755       302.98006      40563.904      25270.696      50           
   4461000  -7832.4739      109.18949     -7941.6634      0.61640401     216.65213      243.34112      294.6476       295.33446      303.89339      40650.316      25324.529      60           
   4462000  -7830.6235      110.78189     -7941.4054      0.61640401     219.81174      285.70977      297.55686      300.45465      304.5203       40568.659      25273.658      63           
   4463000  -7829.7346      112.12867     -7941.8633      0.61640401     222.48401      247.03489      304.10246      302.31233      306.42265      40537.067      25253.977      56           
   4464000  -7828.2824      111.61583     -7939.8983      0.61640401     221.46644      261.86752      296.15325      308.36762      311.44999      40655.722      25327.897      58           
   4465000  -7832.7375      109.83707     -7942.5745      0.61640401     217.93705      302.55316      298.81954      288.72852      311.37524      40521.685      25244.394      56           
   4466000  -7829.5748      111.56296     -7941.1378      0.61640401     221.36152      303.70172      298.36492      302.3133       311.6288       40467.431      25210.595      55           
   4467000  -7829.48        113.56684     -7943.0468      0.61640401     225.33761      358.47476      309.80651      299.0162       304.75865      40593.46       25289.109      57           
   4468000  -7830.7794      110.2189      -7940.9983      0.61640401     218.69468      316.13474      294.43595      299.51185      302.63486      40755.734      25390.203      59           
   4469000  -7833.7136      107.72636     -7941.4399      0.61640401     213.749        249.46405      298.00407      279.02984      301.53168      40327.19       25123.227      50           
   4470000  -7831.3359      111.13836     -7942.4742      0.61640401     220.51905      289.04001      297.8479       303.74094      298.81044      40511.134      25237.821      50           
   4471000  -7831.866       109.50654     -7941.3725      0.61640401     217.28122      323.91         294.99169      293.81738      298.35339      40744.388      25383.135      64           
   4472000  -7832.54        110.07924     -7942.6192      0.61640401     218.41755      295.20039      299.12675      293.80441      298.12231      40346.356      25135.167      70           
   4473000  -7830.7073      109.27165     -7939.9789      0.61640401     216.81516      268.00878      296.10156      292.34084      304.72075      40588.8        25286.206      65           
   4474000  -7830.0589      111.89958     -7941.9585      0.61640401     222.02944      255.6394       303.12862      303.3594       300.04452      40415.166      25178.035      61           
   4475000  -7830.5171      108.69754     -7939.2146      0.61640401     215.67601      255.71171      291.31288      295.64525      303.98401      40716.481      25365.749      56           
   4476000  -7830.0163      111.29387     -7941.3101      0.61640401     220.8276       246.77642      299.2491       303.23704      306.31037      40328.84       25124.254      55           
   4477000  -7824.1562      113.90889     -7938.0651      0.61640401     226.0163       302.51205      301.63378      317.41654      302.35271      40599.597      25292.932      52           
   4478000  -7829.8258      110.01119     -7939.837       0.61640401     218.28253      295.12478      290.54191      305.68576      299.59181      40438.65       25192.665      46           
   4479000  -7830.7728      111.80954     -7942.5823      0.61640401     221.85079      271.46783      302.35131      303.04527      297.55569      40813.701      25426.316      43           
   4480000  -7832.1936      108.66772     -7940.8613      0.61640401     215.61685      290.50076      297.60494      284.84613      301.3835       40345.546      25134.662      56           
   4481000  -7831.1946      111.22863     -7942.4232      0.61640401     220.69816      271.27904      297.88598      304.89336      299.86252      40498.753      25230.108      48           
   4482000  -7832.644       109.62966     -7942.2736      0.61640401     217.52552      343.20954      296.74369      291.11601      299.24925      40556.574      25266.13       55           
   4483000  -7830.9239      110.0252      -7940.9491      0.61640401     218.31033      291.4274       298.88653      293.64028      299.16854      40430.773      25187.758      54           
   4484000  -7830.1815      110.15442     -7940.3359      0.61640401     218.56673      294.78068      300.66078      291.73188      299.56186      40478.648      25217.583      60           
   4485000  -7832.2635      112.34586     -7944.6094      0.61640401     222.91496      323.10986      297.08508      313.14759      295.02471      40630.001      25311.873      55           
   4486000  -7833.3118      110.05092     -7943.3627      0.61640401     218.36136      305.70356      299.64477      292.8298       295.58084      40514.335      25239.816      57           
   4487000  -7830.1723      109.88975     -7940.062       0.61640401     218.04157      331.0873       292.32291      302.44767      290.88443      40344.384      25133.939      53           
   4488000  -7828.4542      114.05911     -7942.5133      0.61640401     226.31435      318.54797      311.1576       306.46388      290.32556      40622.766      25307.366      56           
   4489000  -7831.8492      108.99919     -7940.8484      0.61640401     216.27455      322.41821      287.49036      302.90073      293.05977      40277.469      25092.251      51           
   4490000  -7829.1651      112.30424     -7941.4693      0.61640401     222.83237      272.35676      298.85452      312.26735      297.37802      40763.299      25394.916      54           
   4491000  -7833.3352      110.18541     -7943.5206      0.61640401     218.62821      253.67214      302.01173      292.03813      299.92137      40563.519      25270.456      56           
   4492000  -7828.1869      113.18743     -7941.3743      0.61640401     224.58478      272.98006      309.54694      302.13862      300.97519      40765.045      25396.004      57           
   4493000  -7830.0018      113.45875     -7943.4605      0.61640401     225.12312      265.38397      307.21093      308.72394      299.21639      40424.669      25183.955      62           
   4494000  -7830.0186      110.34835     -7940.367       0.61640401     218.95153      328.98238      307.60287      282.69681      292.10236      40397.868      25167.258      62           
   4495000  -7826.8518      110.24622     -7937.098       0.61640401     218.74888      270.74662      293.29406      307.77252      286.76856      40545.619      25259.305      53           
   4496000  -7825.1632      113.90852     -7939.0717      0.61640401     226.01556      315.32819      312.18984      304.4835       288.3155       40566.862      25272.538      56           
   4497000  -7829.6399      111.40074     -7941.0406      0.61640401     221.03967      367.18466      304.54735      294.35853      286.55356      40606.821      25297.433      59           
   4498000  -7828.7144      112.91284     -7941.6273      0.61640401     224.03995      323.88376      301.50049      312.29921      288.4601       40350.551      25137.78       58           
   4499000  -7829.5034      110.09651     -7939.5999      0.61640401     218.45183      292.55176      308.39642      280.92447      295.59448      40656.385      25328.31       73           
   4500000  -7826.0924      113.75435     -7939.8468      0.61640401     225.70965      344.52622      307.58647      305.86465      296.6064       40433.71       25189.587      71           
   4501000  -7828.5521      110.58208     -7939.1342      0.61640401     219.41529      331.86449      301.4431       292.46775      295.11675      40687.981      25347.994      67           
   4502000  -7827.3051      113.95429     -7941.2594      0.61640401     226.10638      292.80366      314.79058      301.17273      292.28806      40401.047      25169.239      72           
   4503000  -7832.7536      107.94347     -7940.697       0.61640401     214.1798       289.50806      294.17164      288.31145      285.89264      40617.382      25304.012      76           
   4504000  -7831.8032      108.25828     -7940.0614      0.61640401     214.80444      296.92267      298.50217      286.35296      274.11727      40399.01       25167.969      72           
   4505000  -7828.6114      111.75386     -7940.3653      0.61640401     221.74032      288.78938      300.02435      311.06691      273.65656      40707.571      25360.198      78           
   4506000  -7828.9552      109.55683     -7938.512       0.61640401     217.381        288.50623      302.25275      289.87749      279.77477      40573.976      25276.97       76           
   4507000  -7830.919       110.85233     -7941.7713      0.61640401     219.95152      296.61944      303.52278      295.72764      285.93022      40536.379      25253.548      78           
   4508000  -7832.1525      111.51703     -7943.6695      0.61640401     221.27041      288.32536      303.40962      300.78575      288.93006      40500.583      25231.248      72           
   4509000  -7830.5514      111.30447     -7941.8558      0.61640401     220.84865      307.12568      306.93488      292.06374      291.33388      40459.296      25205.527      72           
   4510000  -7834.7486      108.96677     -7943.7154      0.61640401     216.21022      289.7606       294.36732      294.09245      292.83179      40724.169      25370.539      67           
   4511000  -7833.9723      109.56246     -7943.5348      0.61640401     217.39218      316.49167      300.94075      288.80992      285.1583       40447.247      25198.02       69           
   4512000  -7830.6527      110.28312     -7940.9358      0.61640401     218.8221       302.84104      298.35925      299.86267      281.74822      40704.794      25358.468      64           
   4513000  -7833.1338      109.24755     -7942.3813      0.61640401     216.76734      284.21443      300.70883      289.35725      283.56756      40399.441      25168.238      69           
   4514000  -7829.8727      108.59682     -7938.4695      0.61640401     215.47616      272.12627      295.56791      293.59954      280.09548      40702.263      25356.891      61           
   4515000  -7831.1842      107.38934     -7938.5735      0.61640401     213.0803       277.93887      289.94455      290.56906      288.54729      40384.203      25158.745      66           
   4516000  -7827.5577      114.51431     -7942.072       0.61640401     227.21757      299.0191       302.94735      321.3637       297.51671      40660.395      25330.808      61           
   4517000  -7827.9737      112.82517     -7940.7989      0.61640401     223.86598      354.10614      304.29895      303.27792      299.19207      40629.462      25311.538      56           
   4518000  -7831.9755      110.65284     -7942.6283      0.61640401     219.55569      327.60297      298.64057      296.26619      301.23292      40627.179      25310.116      58           
   4519000  -7830.7928      110.40029     -7941.1931      0.61640401     219.05458      285.28139      297.89855      298.6497       298.43892      40703.145      25357.441      71           
   4520000  -7830.5098      112.22866     -7942.7385      0.61640401     222.68241      271.05375      306.47254      302.19566      290.95753      40472.752      25213.91       65           
   4521000  -7832.2571      110.60764     -7942.8648      0.61640401     219.466        289.8233       299.64896      300.30568      285.36728      40663.309      25332.624      65           
   4522000  -7829.9116      110.31163     -7940.2232      0.61640401     218.87865      315.86991      294.81385      304.33139      283.14379      40355.394      25140.797      61           
   4523000  -7829.9301      111.32286     -7941.253       0.61640401     220.88513      285.2554       299.52168      305.53599      287.96385      40614.43       25302.173      54           
   4524000  -7832.9101      108.59023     -7941.5003      0.61640401     215.46308      289.34234      294.38732      289.58843      299.33929      40528.555      25248.674      52           
   4525000  -7830.5563      108.74683     -7939.3032      0.61640401     215.77381      302.12282      286.5628       300.30492      305.10241      40589.925      25286.907      63           
   4526000  -7833.0384      110.28766     -7943.3261      0.61640401     218.83111      337.97233      296.07449      294.05933      311.85445      40530.077      25249.622      60           
   4527000  -7833.1051      108.08393     -7941.189       0.61640401     214.4585       294.08961      290.69635      288.55833      309.39038      40531.423      25250.46       48           
   4528000  -7829.5178      109.93447     -7939.4522      0.61640401     218.13031      294.41891      288.70763      305.9682       306.93611      40600.461      25293.47       44           
   4529000  -7833.7151      109.02222     -7942.7373      0.61640401     216.32024      346.15588      293.20089      291.55158      299.71688      40261.122      25082.067      55           
   4530000  -7827.0876      111.79624     -7938.8839      0.61640401     221.8244       318.65326      299.62192      305.0336       297.08701      40787.582      25410.044      52           
   4531000  -7824.3875      116.25782     -7940.6453      0.61640401     230.67701      269.56858      313.9315       319.32302      298.43337      40330.626      25125.367      49           
   4532000  -7827.0408      111.32406     -7938.3649      0.61640401     220.88752      287.87852      303.71813      294.60853      306.19751      40695.487      25352.67       51           
   4533000  -7828.3769      111.34227     -7939.7192      0.61640401     220.92365      313.13324      299.89334      298.33138      309.68926      40662.62       25332.194      52           
   4534000  -7828.6265      113.0887      -7941.7152      0.61640401     224.38888      340.4793       311.61625      291.81867      313.37278      40362.231      25145.057      49           
   4535000  -7827.4077      113.53382     -7940.9415      0.61640401     225.27208      326.68856      301.80052      310.16727      313.96823      40538.92       25255.131      58           
   4536000  -7828.5273      110.07837     -7938.6057      0.61640401     218.41582      302.91286      287.52435      307.50243      310.61122      40344.887      25134.252      59           
   4537000  -7830.4048      110.30473     -7940.7095      0.61640401     218.86497      304.59199      292.2243       304.01658      303.2034       40567.72       25273.073      56           
   4538000  -7830.2754      112.00929     -7942.2847      0.61640401     222.24713      289.78245      297.77035      310.62516      298.00551      40389.829      25162.25       56           
   4539000  -7829.3995      110.23491     -7939.6344      0.61640401     218.72643      263.35949      300.23042      295.57817      294.95005      40601.967      25294.408      50           
   4540000  -7830.0945      109.82593     -7939.9204      0.61640401     217.91494      288.12124      294.65345      300.32616      292.32476      40460.575      25206.323      57           
   4541000  -7829.3857      111.52261     -7940.9083      0.61640401     221.28147      336.82532      296.3256       305.30827      302.68413      40500.967      25231.487      59           
   4542000  -7831.0974      111.05997     -7942.1574      0.61640401     220.3635       331.02448      298.66249      297.82012      306.41888      40251.245      25075.914      57           
   4543000  -7831.4045      111.32649     -7942.731       0.61640401     220.89233      251.11846      297.27888      305.98241      307.50886      40535.117      25252.762      57           
   4544000  -7834.6006      108.91563     -7943.5162      0.61640401     216.10874      259.0616       292.12391      296.03602      302.57972      40756.538      25390.704      50           
   4545000  -7830.7242      110.98617     -7941.7104      0.61640401     220.21707      317.18715      294.59988      306.8053       295.12725      40559.46       25267.928      60           
   4546000  -7829.0414      111.49837     -7940.5398      0.61640401     221.23337      296.97184      303.17951      298.95332      295.47881      40433.3        25189.331      61           
   4547000  -7830.9921      109.50563     -7940.4978      0.61640401     217.27941      295.81129      296.81256      293.59943      295.10235      40563.511      25270.451      68           
   4548000  -7826.8008      110.82003     -7937.6208      0.61640401     219.88742      310.73901      299.663        298.28702      295.64076      40742.056      25381.682      58           
   4549000  -7829.0184      111.4328      -7940.4512      0.61640401     221.10327      278.35075      298.357        304.99353      302.28748      40431.847      25188.427      58           
   4550000  -7833.549       110.07971     -7943.6287      0.61640401     218.41849      278.66703      295.68938      296.79589      309.73996      40654.174      25326.933      50           
   4551000  -7829.6556      111.66897     -7941.3246      0.61640401     221.57189      303.97781      294.65021      308.75192      311.11281      40609.329      25298.995      53           
   4552000  -7830.8071      111.33124     -7942.1383      0.61640401     220.90177      335.39601      302.73892      292.28978      311.80087      40545.708      25259.36       57           
   4553000  -7827.0695      113.67584     -7940.7454      0.61640401     225.55388      344.04465      298.99265      314.83662      311.61037      40308.813      25111.778      63           
   4554000  -7829.6755      110.07492     -7939.7505      0.61640401     218.40899      268.29697      290.28329      306.78544      304.57485      40497.162      25229.117      57           
   4555000  -7827.8759      111.74431     -7939.6202      0.61640401     221.72136      302.82497      301.85679      301.31574      300.15009      40515.007      25240.234      59           
   4556000  -7830.0454      109.87158     -7939.917       0.61640401     218.00551      280.82434      295.29309      298.20266      300.28053      40504.616      25233.76       58           
   4557000  -7827.6579      111.0756      -7938.7335      0.61640401     220.39453      316.40315      299.65508      298.85621      300.46657      40612.599      25301.032      50           
   4558000  -7826.0704      113.53766     -7939.6081      0.61640401     225.27971      367.12937      307.42801      303.01892      301.91121      40547.996      25260.785      50           
   4559000  -7828.8021      110.73945     -7939.5416      0.61640401     219.72754      328.44256      295.18917      301.32472      304.03769      40671.121      25337.49       56           
   4560000  -7829.7633      112.07968     -7941.843       0.61640401     222.3868       277.44436      302.71582      301.97424      308.07541      40356.42       25141.436      57           
   4561000  -7825.9042      113.78647     -7939.6907      0.61640401     225.77339      308.61106      305.32591      308.79477      309.96472      40363.108      25145.603      52           
   4562000  -7829.3576      113.56069     -7942.9183      0.61640401     225.32539      283.41631      310.13468      301.73318      308.01166      40877.94       25466.336      55           
   4563000  -7829.9364      110.88966     -7940.826       0.61640401     220.02558      293.73243      298.87406      299.00633      303.63195      40488.672      25223.828      60           
   4564000  -7829.7722      111.024       -7940.7962      0.61640401     220.29213      256.64459      296.45219      306.88673      298.57541      40530.305      25249.764      58           
   4565000  -7829.2946      109.96914     -7939.2638      0.61640401     218.1991       246.62778      291.79577      306.61087      297.77408      40370.126      25149.975      58           
   4566000  -7830.9441      110.92784     -7941.8719      0.61640401     220.10133      311.80725      305.55877      287.83866      305.57643      40532.229      25250.963      57           
   4567000  -7828.0132      111.71382     -7939.727       0.61640401     221.66086      289.37012      307.30268      291.66789      308.77238      40404.733      25171.535      61           
   4568000  -7829.5551      111.238       -7940.7931      0.61640401     220.71674      288.3226       295.68824      303.7891       315.59994      40672          25338.038      62           
   4569000  -7828.8799      110.45617     -7939.3361      0.61640401     219.16546      349.36927      295.6383       295.11096      313.0537       40387.207      25160.617      61           
   4570000  -7831.3339      110.01049     -7941.3444      0.61640401     218.28114      365.51087      292.46363      293.52285      319.89577      40654.09       25326.881      69           
   4571000  -7830.3567      111.14784     -7941.5045      0.61640401     220.53785      312.70489      301.8091       294.4925       307.3183       40659.738      25330.399      76           
   4572000  -7829.0249      111.49935     -7940.5243      0.61640401     221.23532      312.48393      301.12409      299.32617      302.76302      40487.766      25223.263      65           
   4573000  -7828.9107      111.8434      -7940.7541      0.61640401     221.91797      251.55508      297.2021       310.81532      307.57085      40517.001      25241.476      72           
   4574000  -7829.5877      111.28951     -7940.8772      0.61640401     220.81897      296.80077      301.18115      298.20224      304.7974       40470.999      25212.818      68           
   4575000  -7831.0706      110.94759     -7942.0182      0.61640401     220.14053      319.13141      301.44335      293.16843      307.1481       40605.299      25296.484      72           
   4576000  -7831.4351      113.57702     -7945.0121      0.61640401     225.3578       279.8564       306.27408      306.34614      315.10606      40787.516      25410.003      62           
   4577000  -7835.4996      109.02898     -7944.5285      0.61640401     216.33365      352.38985      290.6236       292.47422      309.67862      40689.94       25349.214      63           
   4578000  -7831.6056      109.68684     -7941.2924      0.61640401     217.63897      327.57854      287.1806       303.10931      313.06594      40432.278      25188.695      67           
   4579000  -7827.8378      112.94985     -7940.7876      0.61640401     224.11339      280.09001      301.43483      307.84893      319.82486      40531.331      25250.403      65           
   4580000  -7824.1422      114.83629     -7938.9785      0.61640401     227.85643      301.23299      306.16069      314.17162      317.61641      40539.511      25255.499      69           
   4581000  -7828.2957      112.63749     -7940.9332      0.61640401     223.49361      372.82112      301.08324      303.01177      308.17076      40427.933      25185.988      64           
   4582000  -7828.1493      112.1496      -7940.2989      0.61640401     222.52553      292.17885      298.43585      308.93648      304.93484      40913.294      25488.361      61           
   4583000  -7826.0283      113.20284     -7939.2311      0.61640401     224.61536      337.49241      301.20313      311.16263      300.7286       40453.495      25201.913      59           
   4584000  -7826.1248      111.96518     -7938.09        0.61640401     222.15962      322.82736      299.14838      305.28128      302.32005      40352.445      25138.96       62           
   4585000  -7830.5071      112.084       -7942.5911      0.61640401     222.39538      314.60396      293.99587      313.9084       304.26859      40510.728      25237.568      57           
   4586000  -7826.5397      113.46444     -7940.0042      0.61640401     225.13443      254.15437      305.9579       309.18647      307.15271      40388.054      25161.144      59           
   4587000  -7829.3874      113.33309     -7942.7204      0.61640401     224.87381      260.07335      303.19         311.47524      308.7116       40544.342      25258.509      56           
   4588000  -7831.0434      110.07835     -7941.1217      0.61640401     218.41578      262.44889      296.19634      297.1146       308.98901      40584.399      25283.464      52           
   4589000  -7830.2895      112.4318      -7942.7213      0.61640401     223.08546      314.8396       306.44668      298.35953      302.48432      40671.251      25337.571      62           
   4590000  -7827.3802      113.00217     -7940.3823      0.61640401     224.21719      260.73765      303.08652      310.79841      304.01521      40426.5        25185.095      69           
   4591000  -7829.8952      111.26791     -7941.1631      0.61640401     220.77609      271.05832      299.21899      303.47456      301.33221      40683.939      25345.476      70           
   4592000  -7829.7345      111.09709     -7940.8316      0.61640401     220.43716      288.8318       300.49835      299.3353       300.17333      40248.523      25074.218      67           
   4593000  -7827.3851      111.82724     -7939.2123      0.61640401     221.88591      279.34481      305.04215      296.47955      309.11811      40584.71       25283.658      64           
   4594000  -7830.837       111.29104     -7942.1281      0.61640401     220.822        303.19924      301.11683      296.76011      309.43875      40425.337      25184.371      64           
   4595000  -7827.813       110.76838     -7938.5814      0.61640401     219.78493      306.11037      298.01744      297.95424      306.37317      40356.867      25141.715      64           
   4596000  -7828.7089      112.87853     -7941.5874      0.61640401     223.97186      328.60435      304.29365      303.77518      304.1124       40640.748      25318.569      60           
   4597000  -7829.3966      111.63971     -7941.0363      0.61640401     221.51381      273.97536      306.56986      295.63492      299.01407      40747.794      25385.256      68           
   4598000  -7826.705       114.7494      -7941.4544      0.61640401     227.68402      252.40464      309.4108       315.52569      300.05385      40306.187      25110.142      59           
   4599000  -7828.2403      114.2076      -7942.4479      0.61640401     226.60899      308.03853      314.87677      301.04843      296.4746       40601.938      25294.39       63           
   4600000  -7829.0541      111.0496      -7940.1037      0.61640401     220.34293      298.4122       305.14616      291.30719      300.70262      40616.783      25303.639      61           
   4601000  -7829.79        111.64816     -7941.4381      0.61640401     221.53059      299.82861      302.77929      299.37886      300.1034       40352.528      25139.012      52           
   4602000  -7829.4447      113.13285     -7942.5775      0.61640401     224.47649      298.52659      301.99562      311.17901      302.75868      40592.567      25288.553      63           
   4603000  -7830.8653      110.84515     -7941.7105      0.61640401     219.93727      301.93229      295.28914      303.64637      303.24396      40598.823      25292.45       65           
   4604000  -7834.2992      108.55447     -7942.8536      0.61640401     215.39214      293.25238      286.32534      300.82338      301.13848      40514.155      25239.703      61           
   4605000  -7833.7977      109.12719     -7942.9249      0.61640401     216.52851      256.90501      289.59482      301.22903      306.0961       40630.079      25311.922      64           
   4606000  -7833.4611      110.77286     -7944.234       0.61640401     219.79382      316.02287      301.17546      293.41244      303.40655      40488.001      25223.409      64           
   4607000  -7830.4869      109.05493     -7939.5418      0.61640401     216.38515      328.66036      287.37969      301.7232       297.73042      40427.633      25185.801      62           
   4608000  -7827.6111      110.9313      -7938.5424      0.61640401     220.1082       269.18485      302.02593      296.66304      301.78318      40705.111      25358.666      66           
   4609000  -7828.4352      112.30387     -7940.7391      0.61640401     222.83163      261.76763      305.58722      303.49754      296.80042      40393.572      25164.582      71           
   4610000  -7831.3175      110.52843     -7941.8459      0.61640401     219.30884      307.16404      292.75666      306.09784      297.05389      40514.457      25239.891      72           
   4611000  -7829.7862      111.38261     -7941.1688      0.61640401     221.00368      308.12247      303.05337      296.99371      297.62792      40741.857      25381.558      72           
   4612000  -7830.634       110.56936     -7941.2034      0.61640401     219.39006      265.61875      300.98028      296.93747      296.58808      40513.38       25239.22       66           
   4613000  -7830.5618      110.67457     -7941.2364      0.61640401     219.59881      318.19407      296.67849      301.88855      291.33447      40410.444      25175.093      73           
   4614000  -7825.9698      113.6139      -7939.5837      0.61640401     225.43099      284.43389      314.97762      298.511        294.31683      40627.036      25310.026      73           
   4615000  -7828.1844      112.43638     -7940.6208      0.61640401     223.09455      297.53143      306.6429       301.0345       294.42315      40533.611      25251.824      67           
   4616000  -7833.4794      111.03844     -7944.5178      0.61640401     220.32079      330.63601      302.74276      293.26982      297.59317      40444.401      25196.247      74           
   4617000  -7828.1231      111.68633     -7939.8094      0.61640401     221.60631      326.82231      306.40144      293.19831      296.01863      40587.634      25285.479      80           
   4618000  -7830.2102      110.29589     -7940.5061      0.61640401     218.84744      333.82853      301.88155      290.44647      289.80951      40401.394      25169.455      76           
   4619000  -7821.9257      116.84843     -7938.7742      0.61640401     231.84888      310.55887      316.75125      318.49668      293.51766      40516.715      25241.298      75           
   4620000  -7827.5974      111.98854     -7939.5859      0.61640401     222.20596      304.08972      304.14614      302.06499      289.7767       40400.645      25168.988      63           
   4621000  -7831.2238      110.49319     -7941.7169      0.61640401     219.23891      284.98697      299.95707      298.17553      290.31115      40611.187      25300.153      69           
   4622000  -7827.325       111.14285     -7938.4679      0.61640401     220.52796      264.35535      303.99323      298.82389      288.88053      40378.782      25155.368      72           
   4623000  -7825.0955      112.97529     -7938.0708      0.61640401     224.16386      285.00267      303.38171      313.56654      283.02963      40632.906      25313.683      72           
   4624000  -7830.2916      109.55221     -7939.8438      0.61640401     217.37183      276.37818      297.46999      297.76144      280.00901      40381.774      25157.232      61           
   4625000  -7830.8387      109.08343     -7939.9222      0.61640401     216.44168      255.6132       297.27094      294.74993      284.32314      40616.183      25303.265      62           
   4626000  -7830.6377      111.9001      -7942.5378      0.61640401     222.03049      279.60335      307.98531      298.57073      284.0343       40509.493      25236.799      61           
   4627000  -7830.5479      109.53916     -7940.0871      0.61640401     217.34593      250.54323      297.96131      296.3734       287.83226      40403.705      25170.895      56           
   4628000  -7833.2703      108.85891     -7942.1292      0.61640401     215.99619      293.41606      298.21676      288.62642      287.5861       40588.37       25285.938      55           
   4629000  -7829.5512      109.76739     -7939.3186      0.61640401     217.7988       283.75005      290.68747      307.2544       287.24911      40623.237      25307.66       56           
   4630000  -7833.3905      107.99449     -7941.385       0.61640401     214.28104      297.88875      294.18557      287.75256      287.62791      40468.944      25211.537      69           
   4631000  -7830.2967      111.37108     -7941.6678      0.61640401     220.9808       309.21252      302.76534      302.18827      276.37231      40415.014      25177.94       75           
   4632000  -7830.7263      110.34701     -7941.0733      0.61640401     218.94886      301.4324       305.37666      292.00982      272.64038      40790.97       25412.155      69           
   4633000  -7829.7077      111.14619     -7940.8539      0.61640401     220.53459      313.11195      301.8958       301.42511      277.7485       40290.445      25100.335      66           
   4634000  -7829.502       110.91803     -7940.42        0.61640401     220.08188      297.34443      298.30708      304.94378      282.34393      40615.969      25303.131      62           
   4635000  -7831.0518      110.98318     -7942.035       0.61640401     220.21114      328.71142      302.229        298.4599       279.65752      40578.735      25279.935      60           
   4636000  -7828.7717      109.917       -7938.6887      0.61640401     218.09565      273.83524      298.23064      299.38572      280.4412       40369.166      25149.377      64           
   4637000  -7824.5821      111.75567     -7936.3378      0.61640401     221.7439       296.59621      308.86292      295.77381      281.83826      40638.527      25317.185      64           
   4638000  -7828.623       110.97941     -7939.6024      0.61640401     220.20367      303.50359      306.69723      291.95029      285.05094      40398.415      25167.599      70           
   4639000  -7831.4977      109.81008     -7941.3078      0.61640401     217.8835       267.72583      302.8788       290.89193      284.59387      40796.191      25415.407      57           
   4640000  -7826.1849      110.85402     -7937.0389      0.61640401     219.95487      255.91604      298.32165      305.95025      286.32341      40503.339      25232.965      62           
   4641000  -7827.0429      113.00214     -7940.0451      0.61640401     224.21713      305.73082      304.94963      309.57359      285.00083      40701.115      25356.176      60           
   4642000  -7829.9969      109.35789     -7939.3548      0.61640401     216.98626      238.63044      306.49659      282.30054      291.95897      40377.952      25154.851      64           
   4643000  -7827.3592      109.4832      -7936.8424      0.61640401     217.2349       293.37495      300.55052      289.37994      289.19915      40525.153      25246.555      62           
   4644000  -7830.3519      110.30188     -7940.6538      0.61640401     218.85932      242.26729      300.81784      298.33297      287.88447      40406.513      25172.644      58           
   4645000  -7828.5875      110.04331     -7938.6308      0.61640401     218.34627      255.88486      296.86636      300.13254      293.91334      40551.393      25262.902      60           
   4646000  -7831.6784      111.13218     -7942.8106      0.61640401     220.50679      245.98874      302.09554      300.07578      297.94331      40828.068      25435.266      59           
   4647000  -7829.2241      111.11077     -7940.3349      0.61640401     220.46431      296.74721      295.21638      308.4867       293.02872      40461.668      25207.005      60           
   4648000  -7832.0419      112.19652     -7944.2385      0.61640401     222.61862      252.44882      302.21763      308.54507      294.48456      40568.223      25273.386      63           
   4649000  -7829.9315      111.10085     -7941.0323      0.61640401     220.44462      246.95595      300.89448      302.50051      294.96885      40543.71       25258.115      63           
   4650000  -7831.778       110.17858     -7941.9566      0.61640401     218.61468      230.36062      295.66111      304.7603       294.33089      40678.972      25342.381      67           
   4651000  -7831.329       110.19884     -7941.5279      0.61640401     218.65487      234.11645      296.56318      303.42547      292.94368      40435.455      25190.674      63           
   4652000  -7828.4885      111.21825     -7939.7068      0.61640401     220.67757      251.19961      300.45969      304.60527      290.50278      40681.001      25343.646      57           
   4653000  -7830.2257      113.16232     -7943.388       0.61640401     224.53496      315.98365      300.9088       315.67826      287.20003      40602.886      25294.981      61           
   4654000  -7830.1153      111.83389     -7941.9492      0.61640401     221.89912      322.11854      299.91214      304.9662       295.24953      40648.285      25323.264      59           
   4655000  -7831.7872      111.4889      -7943.2761      0.61640401     221.21459      287.66524      296.36821      309.84732      294.47146      40449.138      25199.198      66           
   4656000  -7830.6662      109.85667     -7940.5229      0.61640401     217.97594      306.1217       298.18783      295.18223      288.42114      40464.664      25208.871      61           
   4657000  -7827.9335      110.57515     -7938.5087      0.61640401     219.40153      273.0789       299.70246      298.68556      295.10505      40635.754      25315.458      62           
   4658000  -7829.4323      111.54864     -7940.9809      0.61640401     221.33313      264.41609      303.77121      301.0517       292.7568       40555.452      25265.431      63           
   4659000  -7827.724       114.35455     -7942.0786      0.61640401     226.90057      235.85153      315.01049      307.68314      289.07861      40628.881      25311.176      58           
   4660000  -7829.4475      109.78905     -7939.2365      0.61640401     217.84177      263.34458      298.91646      296.15983      287.27928      40593.107      25288.889      54           
   4661000  -7831.0211      109.80498     -7940.8261      0.61640401     217.87338      263.88554      304.57049      288.89655      284.66608      40509.745      25236.956      68           
   4662000  -7830.5152      111.08239     -7941.5976      0.61640401     220.408        270.54158      304.32863      295.77196      296.05225      40366.45       25147.685      71           
   4663000  -7827.754       110.45287     -7938.2069      0.61640401     219.1589       308.9599       301.63648      290.81989      303.04991      40374.634      25152.784      67           
   4664000  -7831.7121      110.95207     -7942.6642      0.61640401     220.14942      267.5731       301.5673       296.85803      305.12512      40620.722      25306.093      67           
   4665000  -7832.1784      110.22415     -7942.4025      0.61640401     218.70508      260.69871      300.04672      294.30588      304.95349      40593.727      25289.275      71           
   4666000  -7828.5517      111.72461     -7940.2763      0.61640401     221.68228      297.03398      292.91741      314.23712      302.79855      40767.064      25397.262      73           
   4667000  -7829.4195      112.72159     -7942.1411      0.61640401     223.66046      283.20983      304.70376      306.86462      295.46732      40426.871      25185.326      76           
   4668000  -7827.0799      112.00029     -7939.0802      0.61640401     222.22927      301.18902      301.73712      305.61097      290.75218      40467.558      25210.674      78           
   4669000  -7827.2028      111.37572     -7938.5785      0.61640401     220.99001      262.8743       308.1687       294.76881      287.2622       40345.883      25134.872      71           
   4670000  -7828.2084      110.51401     -7938.7224      0.61640401     219.28023      298.98473      305.71629      289.05762      288.9275       40548.123      25260.864      82           
   4671000  -7828.9307      112.57936     -7941.5101      0.61640401     223.37826      300.49721      304.08508      305.93008      293.46811      40547.153      25260.26       71           
   4672000  -7830.2325      110.58878     -7940.8213      0.61640401     219.42858      311.67499      297.77088      300.63281      289.0047       40607.423      25297.807      72           
   4673000  -7830.1388      112.16563     -7942.3044      0.61640401     222.55733      370.66435      297.89482      309.15428      288.05943      40671.023      25337.429      63           
   4674000  -7834.3123      109.56847     -7943.8808      0.61640401     217.4041       280.06106      293.68781      299.61371      295.1333       40508.24       25236.018      59           
   4675000  -7828.2217      113.39431     -7941.616       0.61640401     224.99526      282.28105      305.17772      311.39352      294.23023      40570.309      25274.686      61           
   4676000  -7831.2505      110.46811     -7941.7186      0.61640401     219.18915      257.44609      301.94498      295.55773      294.24049      40619.869      25305.562      59           
   4677000  -7832.2575      109.90289     -7942.1603      0.61640401     218.06764      303.69856      296.14913      297.8186       292.39833      40605.532      25296.629      55           
   4678000  -7833.6712      109.13256     -7942.8037      0.61640401     216.53917      277.74822      289.31081      304.15398      290.51006      40688.55       25348.349      63           
   4679000  -7832.6626      107.97053     -7940.6331      0.61640401     214.23348      267.51669      289.90243      295.11079      291.20042      40358.966      25143.022      69           
   4680000  -7829.1176      110.98094     -7940.0985      0.61640401     220.20669      261.82777      304.34059      296.33397      291.30617      40453.424      25201.869      60           
   4681000  -7831.0954      110.26024     -7941.3556      0.61640401     218.7767       291.65262      297.84188      297.95401      295.23337      40419.411      25180.679      63           
   4682000  -7831.2318      109.60036     -7940.8321      0.61640401     217.46737      275.66973      296.23339      296.71645      293.14243      40663.184      25332.546      55           
   4683000  -7829.3475      112.26        -7941.6075      0.61640401     222.74459      337.93914      303.8851       301.354        295.05488      40535.901      25253.251      61           
   4684000  -7832.0458      111.08278     -7943.1286      0.61640401     220.40876      280.66518      295.35255      307.27616      299.90533      40488.531      25223.739      55           
   4685000  -7835.7227      108.80145     -7944.5242      0.61640401     215.88219      289.6595       292.78489      294.42571      296.04406      40627.956      25310.6        58           
   4686000  -7831.2225      110.75755     -7941.9801      0.61640401     219.76346      335.52765      296.27382      301.27432      295.4117       40551.378      25262.892      65           
   4687000  -7833.0608      109.61295     -7942.6738      0.61640401     217.49235      265.0743       295.92352      296.43567      299.4039       40692.51       25350.815      59           
   4688000  -7827.9697      113.85261     -7941.8223      0.61640401     225.90463      306.64129      307.84935      308.73128      297.09972      40570.986      25275.108      63           
   4689000  -7830.9642      110.49123     -7941.4555      0.61640401     219.23502      344.13893      303.17429      288.71698      295.74416      40793.369      25413.649      57           
   4690000  -7833.5357      109.34014     -7942.8758      0.61640401     216.95105      314.58025      292.5317       298.41745      292.73015      40482.075      25219.718      51           
   4691000  -7833.6755      107.61742     -7941.2929      0.61640401     213.53286      327.44047      284.21867      296.49022      295.68778      40559.143      25267.73       52           
   4692000  -7828.9039      112.66504     -7941.5689      0.61640401     223.54826      308.96436      315.11843      290.78865      289.47994      40425.171      25184.267      55           
   4693000  -7830.0235      111.78656     -7941.8101      0.61640401     221.80519      269.62083      314.70753      285.86853      293.04564      40583.566      25282.945      52           
   4694000  -7829.1293      108.82212     -7937.9514      0.61640401     215.9232       304.73976      283.43743      308.32323      293.32779      40720.83       25368.458      58           
   4695000  -7830.4136      108.89438     -7939.308       0.61640401     216.06658      315.67157      300.26896      285.24283      285.01754      40353.157      25139.404      58           
   4696000  -7832.5236      108.85749     -7941.3811      0.61640401     215.99338      325.20954      292.51639      295.90902      283.91403      40664.247      25333.208      66           
   4697000  -7828.6423      113.73127     -7942.3735      0.61640401     225.66385      310.20323      306.00639      311.5169       291.43649      40388.157      25161.208      73           
   4698000  -7828.2487      113.07928     -7941.328       0.61640401     224.3702       319.09958      302.05778      311.38876      294.08152      40602.356      25294.651      68           
   4699000  -7825.0071      116.89622     -7941.9033      0.61640401     231.9437       329.5839       313.57751      323.01054      289.57812      40500.751      25231.352      77           
   4700000  -7832.4721      111.52338     -7943.9955      0.61640401     221.28299      353.54147      303.51911      296.73603      287.47137      40584.835      25283.736      69           
   4701000  -7833.1228      109.71842     -7942.8413      0.61640401     217.70162      332.1443       298.44968      292.46478      287.0416       40631.273      25312.666      65           
   4702000  -7830.0542      110.30377     -7940.3579      0.61640401     218.86307      259.70056      305.37807      291.7696       282.78817      40435.333      25190.598      56           
   4703000  -7826.2725      112.72606     -7938.9985      0.61640401     223.66934      307.97618      309.62589      301.99534      279.1535       40733.203      25376.167      54           
   4704000  -7830.6368      109.87668     -7940.5135      0.61640401     218.01565      278.06472      295.56033      301.21405      287.12486      40261.636      25082.387      59           
   4705000  -7830.0999      111.53132     -7941.6312      0.61640401     221.29876      307.97554      304.6154       297.7857       289.861        40866.999      25459.519      58           
   4706000  -7827.3778      112.56621     -7939.944       0.61640401     223.35216      278.62434      306.90852      302.82641      293.87303      40365.987      25147.397      59           
   4707000  -7830.9911      111.14466     -7942.1358      0.61640401     220.53156      258.27802      306.59601      292.67885      296.66615      40631.35       25312.714      49           
   4708000  -7828.8884      110.6991      -7939.5875      0.61640401     219.64747      284.65211      297.00534      302.25794      297.47999      40588.585      25286.072      52           
   4709000  -7830.3931      109.68367     -7940.0768      0.61640401     217.63268      268.52253      294.59097      299.80137      294.62666      40581.867      25281.887      55           
   4710000  -7831.2505      108.50231     -7939.7528      0.61640401     215.28864      316.06687      295.06858      288.81722      289.19371      40377.011      25154.264      65           
   4711000  -7832.2342      109.65086     -7941.8851      0.61640401     217.56757      253.75389      298.51069      296.27036      288.10718      40468.987      25211.564      60           
   4712000  -7830.0437      110.12042     -7940.1641      0.61640401     218.49926      312.05757      303.87592      290.38828      279.72317      40785.75       25408.903      62           
   4713000  -7827.1491      107.78444     -7934.9335      0.61640401     213.86426      260.50589      291.75763      292.03526      287.60034      40210.722      25050.669      61           
   4714000  -7828.3837      111.15923     -7939.543       0.61640401     220.56046      269.35266      298.74066      306.67665      286.56207      40737.586      25378.897      53           
   4715000  -7831.2172      109.29776     -7940.515       0.61640401     216.86696      322.36705      295.25283      294.09605      291.10883      40505.539      25234.336      50           
   4716000  -7830.2031      111.09786     -7941.3009      0.61640401     220.43869      319.53429      289.85604      313.9026       298.61255      40691.426      25350.14       54           
   4717000  -7831.8335      111.55582     -7943.3894      0.61640401     221.34737      246.57703      297.86492      306.81156      305.96534      40461.073      25206.634      45           
   4718000  -7829.7765      112.63521     -7942.4117      0.61640401     223.48907      296.0174       304.39533      301.75758      311.35734      40587.916      25285.655      49           
   4719000  -7830.7918      111.73364     -7942.5255      0.61640401     221.70019      333.91021      303.12786      297.09173      302.54218      40588.658      25286.117      56           
   4720000  -7831.5658      112.41772     -7943.9835      0.61640401     223.05754      332.24994      306.90069      297.53077      298.16696      40475.329      25215.515      63           
   4721000  -7835.271       109.51378     -7944.7848      0.61640401     217.29558      312.39085      299.62428      289.64086      290.44027      40695.121      25352.442      60           
   4722000  -7829.1144      109.6322      -7938.7466      0.61640401     217.53055      264.83446      293.17302      303.16276      289.16801      40204.592      25046.85       59           
   4723000  -7829.4282      111.96392     -7941.3922      0.61640401     222.15711      249.44329      301.74441      306.4607       297.1502       40896.368      25477.816      51           
   4724000  -7829.4156      111.95261     -7941.3682      0.61640401     222.13467      341.58744      301.04688      301.23248      303.07963      40486.458      25222.448      58           
   4725000  -7833.3012      109.02905     -7942.3303      0.61640401     216.33379      279.56602      299.11624      284.25074      307.9511       40671.417      25337.675      53           
   4726000  -7832.6594      110.08891     -7942.7483      0.61640401     218.43676      293.9585       298.47274      291.81813      310.27428      40472.699      25213.877      49           
   4727000  -7835.5021      108.50767     -7944.0098      0.61640401     215.29927      226.16266      292.47708      291.69373      311.6108       40534.989      25252.682      50           
   4728000  -7826.3269      113.83918     -7940.1661      0.61640401     225.87798      251.19923      308.07677      309.27079      303.38019      40472.605      25213.818      46           
   4729000  -7825.2328      113.84486     -7939.0777      0.61640401     225.88924      198.14447      310.1034       310.14501      298.38638      40489.745      25224.496      48           
   4730000  -7828.2682      110.46641     -7938.7346      0.61640401     219.18577      281.33676      305.51527      288.59884      294.44906      40681.872      25344.188      44           
   4731000  -7828.9266      111.43431     -7940.3609      0.61640401     221.10627      306.20806      296.03903      309.8526       291.02507      40427.569      25185.762      47           
   4732000  -7830.2322      110.99679     -7941.2289      0.61640401     220.23814      234.86765      297.89645      306.16025      293.36988      40875.82       25465.015      43           
   4733000  -7829.0091      112.5872      -7941.5963      0.61640401     223.39381      281.89732      302.13207      308.33833      299.65344      40115.946      24991.625      47           
   4734000  -7832.3179      108.53129     -7940.8492      0.61640401     215.34613      297.4852       287.76203      297.22224      304.49578      40582.219      25282.106      45           
   4735000  -7829.6744      109.27974     -7938.9541      0.61640401     216.8312       313.27658      294.82149      290.93839      307.1899       40489.758      25224.504      49           
   4736000  -7828.6009      112.47852     -7941.0794      0.61640401     223.17817      351.65296      298.69668      310.19395      295.90582      40461.654      25206.996      52           
   4737000  -7831.4154      109.17995     -7940.5953      0.61640401     216.6332       336.96654      291.489        297.59589      293.38538      40355.244      25140.704      49           
   4738000  -7829.3788      110.22649     -7939.6053      0.61640401     218.70973      337.4451       298.60983      295.62758      290.00704      40745.333      25383.723      50           
   4739000  -7831.7679      110.24689     -7942.0148      0.61640401     218.7502       353.18258      298.99953      295.31534      284.33861      40548.418      25261.048      59           
   4740000  -7831.6325      110.2732      -7941.9057      0.61640401     218.80241      354.11869      298.2171       296.14767      286.1192       40415.46       25178.217      60           
   4741000  -7826.6581      112.2678      -7938.9259      0.61640401     222.76006      329.00034      302.13518      306.76869      286.63751      40657.148      25328.786      56           
   4742000  -7830.2666      112.08691     -7942.3535      0.61640401     222.40115      279.35999      299.11924      310.6554       294.71127      40418.355      25180.021      61           
   4743000  -7832.9452      112.52584     -7945.4711      0.61640401     223.27207      315.17436      304.71349      302.63645      298.68041      40538.527      25254.887      57           
   4744000  -7829.5689      113.04862     -7942.6175      0.61640401     224.30936      352.38454      305.81509      303.0211       300.47719      40648.257      25323.246      45           
   4745000  -7829.4695      110.43532     -7939.9048      0.61640401     219.12408      272.97085      300.89246      295.64607      294.30347      40586.049      25284.492      44           
   4746000  -7827.7299      111.7397      -7939.4696      0.61640401     221.71222      346.59795      301.68701      302.56443      288.76863      40442.808      25195.255      45           
   4747000  -7830.9991      112.24491     -7943.244       0.61640401     222.71464      342.39265      304.05802      303.79892      284.52081      40599.567      25292.914      50           
   4748000  -7832.8492      111.13985     -7943.9891      0.61640401     220.52201      274.77092      302.20088      300.64816      288.46133      40586.248      25284.616      58           
   4749000  -7833.2461      109.20303     -7942.4492      0.61640401     216.679        282.61062      289.2343       304.01401      292.23212      40480.282      25218.601      56           
   4750000  -7829.524       109.7436      -7939.2676      0.61640401     217.75158      317.99796      296.17982      295.44826      294.86917      40594          25289.445      45           
   4751000  -7830.9134      112.20308     -7943.1165      0.61640401     222.63164      323.83226      304.05971      301.43251      296.36102      40575.038      25277.632      51           
   4752000  -7828.6224      113.065       -7941.6874      0.61640401     224.34186      299.87068      315.27542      290.19013      304.81529      40603.048      25295.082      43           
   4753000  -7830.1295      111.1522      -7941.2817      0.61640401     220.54651      273.01934      294.48882      307.12596      308.94542      40461.342      25206.802      52           
   4754000  -7829.9558      112.61148     -7942.5673      0.61640401     223.44199      278.42494      299.24524      311.05842      307.29956      40610.817      25299.922      47           
   4755000  -7833.5213      109.17298     -7942.6943      0.61640401     216.61937      254.83884      291.00801      299.00944      305.91907      40456.353      25203.693      51           
   4756000  -7829.4695      111.06982     -7940.5393      0.61640401     220.38306      315.46527      296.78868      303.07009      301.17266      40557.876      25266.941      42           
   4757000  -7830.4762      110.96776     -7941.444       0.61640401     220.18054      270.16955      300.04995      299.07125      302.54494      40465.189      25209.198      48           
   4758000  -7831.4625      110.04226     -7941.5048      0.61640401     218.34418      311.62308      297.34266      295.59953      296.81099      40673.167      25338.765      55           
   4759000  -7829.2443      113.36241     -7942.6067      0.61640401     224.93198      348.17648      309.89937      297.59866      304.61989      40397.487      25167.021      66           
   4760000  -7828.8588      112.01577     -7940.8746      0.61640401     222.25999      271.64309      306.06544      297.02992      308.03487      40572.941      25276.326      62           
   4761000  -7830.9305      112.18909     -7943.1196      0.61640401     222.6039       340.46498      302.30975      301.58294      301.13124      40442.335      25194.96       60           
   4762000  -7831.1001      111.94955     -7943.0496      0.61640401     222.1286       271.72263      304.36917      298.66871      309.2344       40674.004      25339.286      59           
   4763000  -7830.6272      111.84318     -7942.4704      0.61640401     221.91755      330.56431      292.03788      313.40866      306.65933      40415.989      25178.547      63           
   4764000  -7827.4444      113.33044     -7940.7749      0.61640401     224.86855      291.48028      307.64027      304.59341      302.77489      40463.121      25207.91       56           
   4765000  -7832.0607      109.1531      -7941.2138      0.61640401     216.57993      348.46226      297.8243       286.64953      292.12783      40868.311      25460.337      69           
   4766000  -7831.9663      109.26651     -7941.2328      0.61640401     216.80495      312.50262      292.2983       296.07001      300.86139      40454.962      25202.827      68           
   4767000  -7830.2211      113.1905      -7943.4116      0.61640401     224.59087      274.93669      304.3978       310.01995      300.37464      40513.312      25239.178      63           
   4768000  -7826.4919      112.36408     -7938.8559      0.61640401     222.9511       234.17184      307.26478      303.26818      294.57251      40496.515      25228.713      61           
   4769000  -7826.1878      112.36977     -7938.5576      0.61640401     222.9624       350.69225      309.94317      291.81903      295.93799      40464.523      25208.783      68           
   4770000  -7830.3159      112.00047     -7942.3164      0.61640401     222.22964      320.32033      299.94151      304.37192      302.72284      40464.403      25208.708      66           
   4771000  -7832.092       110.80967     -7942.9017      0.61640401     219.86686      301.12463      298.75711      297.25087      307.63718      40524.229      25245.979      72           
   4772000  -7833.0574      110.18325     -7943.2406      0.61640401     218.62393      318.78297      300.17566      290.41044      303.2573       40624.131      25308.216      60           
   4773000  -7830.3005      111.23308     -7941.5336      0.61640401     220.70699      278.21667      299.26501      302.32786      301.46749      40485.07       25221.583      56           
   4774000  -7827.9285      112.68596     -7940.6144      0.61640401     223.58976      273.94036      302.05144      308.83949      302.14984      40685.327      25346.341      44           
   4775000  -7828.8948      111.19378     -7940.0886      0.61640401     220.62901      303.63948      301.9096       297.26346      299.39672      40472.468      25213.732      50           
   4776000  -7829.2469      109.47526     -7938.7221      0.61640401     217.21915      261.96465      289.34454      304.08276      303.37357      40425.473      25184.456      50           
   4777000  -7828.7154      111.9121      -7940.6275      0.61640401     222.05428      281.87661      305.05857      297.74937      304.51476      40630.278      25312.046      51           
   4778000  -7829.4276      110.36654     -7939.7941      0.61640401     218.98761      304.72885      296.76468      296.95775      306.11753      40548.267      25260.954      52           
   4779000  -7829.0772      112.81801     -7941.8952      0.61640401     223.85179      318.86934      307.71252      298.00552      307.38198      40726.588      25372.045      59           
   4780000  -7829.3054      112.54318     -7941.8485      0.61640401     223.30647      314.74561      309.9156       292.57509      308.59571      40443.622      25195.762      62           
   4781000  -7829.3423      112.07004     -7941.4123      0.61640401     222.36767      301.2162       295.34111      310.6387       312.49556      40738.919      25379.728      53           
   4782000  -7828.7281      112.55041     -7941.2785      0.61640401     223.32082      298.12323      300.1336       308.45716      307.51119      40398.788      25167.831      64           
   4783000  -7831.089       111.82755     -7942.9165      0.61640401     221.88652      261.25691      301.08567      302.10766      315.46592      40460.924      25206.541      69           
   4784000  -7831.5664      109.68342     -7941.2498      0.61640401     217.63218      288.40233      299.01575      288.61641      310.09829      40607.225      25297.684      69           
   4785000  -7827.7706      110.24624     -7938.0168      0.61640401     218.74892      352.42589      294.86373      296.5601       302.7524       40370.217      25150.032      69           
   4786000  -7829.3424      110.0173      -7939.3597      0.61640401     218.29467      313.47357      296.61679      294.90077      301.99894      40569.309      25274.063      73           
   4787000  -7828.2703      111.79744     -7940.0677      0.61640401     221.82679      291.7839       301.17528      302.62672      303.96596      40430.825      25187.79       78           
   4788000  -7835.1699      107.88901     -7943.0589      0.61640401     214.07173      284.69296      295.33693      279.00034      317.46511      40490.077      25224.703      64           
   4789000  -7833.2873      109.77991     -7943.0673      0.61640401     217.82364      332.75857      292.36212      295.61842      313.68159      40677.792      25341.646      65           
   4790000  -7829.3391      110.53526     -7939.8743      0.61640401     219.32238      310.9271       298.63147      293.47276      312.7869       40408.361      25173.795      75           
   4791000  -7828.6248      111.86501     -7940.4898      0.61640401     221.96086      258.01758      300.6582       303.83785      314.21379      40329.206      25124.483      73           
   4792000  -7828.9068      112.56195     -7941.4688      0.61640401     223.34371      283.29604      304.97414      299.43421      320.36268      40732.818      25375.927      70           
   4793000  -7828.7548      113.39424     -7942.1491      0.61640401     224.99513      267.95397      307.08892      303.15489      321.99128      40551.046      25262.686      70           
   4794000  -7828.3113      112.59398     -7940.9053      0.61640401     223.40727      329.12618      305.73357      296.60566      314.74657      40504.414      25233.634      78           
   4795000  -7831.1823      112.06123     -7943.2435      0.61640401     222.35019      272.78917      309.62021      291.04726      314.18031      40688.461      25348.293      75           
   4796000  -7834.5045      108.22885     -7942.7333      0.61640401     214.74604      320.32819      298.76745      275.73815      310.8045       40358.539      25142.757      74           
   4797000  -7829.9564      112.31451     -7942.271       0.61640401     222.85274      303.952        298.04811      308.99237      309.51748      40511.854      25238.269      68           
   4798000  -7833.062       110.51692     -7943.5789      0.61640401     219.28599      290.35348      300.29757      292.77328      310.15123      40541.555      25256.773      63           
   4799000  -7828.9232      111.96564     -7940.8889      0.61640401     222.16053      268.71797      301.16886      302.21612      317.01107      40696.241      25353.14       67           
   4800000  -7825.3366      116.00275     -7941.3393      0.61640401     230.17089      300.13513      314.86581      312.93048      305.47992      40540.566      25256.157      73           
   4801000  -7830.8544      110.3132      -7941.1676      0.61640401     218.88178      297.48645      297.31545      296.1429       306.53128      40484.555      25221.263      61           
   4802000  -7830.9281      110.27664     -7941.2047      0.61640401     218.80924      292.7385       298.44247      292.47355      315.17557      40450.306      25199.926      73           
   4803000  -7827.8116      112.53534     -7940.3469      0.61640401     223.29091      312.10801      302.81754      302.78389      310.57764      40357.626      25142.188      62           
   4804000  -7828.0686      111.68789     -7939.7565      0.61640401     221.60941      289.03745      305.15716      293.62955      313.1368       40759.063      25392.277      60           
   4805000  -7828.7607      112.91342     -7941.6741      0.61640401     224.04109      313.75941      311.93781      291.09321      314.1136       40294.187      25102.666      65           
   4806000  -7831.7703      111.21036     -7942.9806      0.61640401     220.66191      322.43742      304.33592      289.07896      314.07455      40869.236      25460.913      66           
   4807000  -7828.7871      113.26762     -7942.0547      0.61640401     224.74389      322.29937      307.02685      299.84219      317.45715      40593.667      25289.238      56           
   4808000  -7833.2891      109.62082     -7942.9099      0.61640401     217.50797      285.82895      290.37609      298.65514      320.65044      40500.022      25230.898      63           
   4809000  -7834.0714      108.78077     -7942.8521      0.61640401     215.84115      314.77992      291.16003      289.73557      319.10011      40506.059      25234.66       65           
   4810000  -7831.2525      110.27799     -7941.5305      0.61640401     218.81191      277.4846       297.53962      291.9991       327.54405      40570.754      25274.964      71           
   4811000  -7828.7762      109.69332     -7938.4695      0.61640401     217.65183      319.31933      282.14909      308.08262      326.83324      40662.846      25332.335      67           
   4812000  -7827.4992      112.44054     -7939.9397      0.61640401     223.10282      285.10728      300.51343      304.49066      322.72831      40400.884      25169.137      69           
   4813000  -7828.105       112.5629      -7940.6679      0.61640401     223.3456       266.91563      311.8401       289.99574      320.33876      40811.569      25424.987      64           
   4814000  -7826.8033      114.66319     -7941.4665      0.61640401     227.51296      286.72642      310.87027      304.49048      326.05868      40341.306      25132.021      59           
   4815000  -7829.092       110.5407      -7939.6327      0.61640401     219.33318      289.16843      294.9912       296.75373      327.78249      40653.657      25326.61       65           
   4816000  -7827.8483      113.15123     -7940.9995      0.61640401     224.51295      305.23711      303.94788      301.13579      331.57899      40441.653      25194.535      62           
   4817000  -7824.7764      115.95265     -7940.729       0.61640401     230.0715       292.81837      310.16355      312.70437      336.05208      40791.752      25412.642      67           
   4818000  -7828.6547      112.10268     -7940.7574      0.61640401     222.43244      289.66814      301.9219       294.33824      343.57426      40550.447      25262.313      66           
   4819000  -7831.3329      111.86032     -7943.1932      0.61640401     221.95156      312.672        300.12094      293.51485      346.27574      40322.515      25120.314      68           
   4820000  -7828.2042      113.74998     -7941.9542      0.61640401     225.70099      277.94115      303.37815      305.80685      343.83296      40650.858      25324.867      71           
   4821000  -7831.7695      111.53149     -7943.301       0.61640401     221.2991       311.60493      294.29424      302.27524      335.61937      40243.904      25071.341      72           
   4822000  -7829.635       112.28269     -7941.9177      0.61640401     222.78961      271.89992      303.56209      298.39117      327.85305      40897.256      25478.369      68           
   4823000  -7828.4002      112.07255     -7940.4727      0.61640401     222.37265      312.39128      299.61661      298.53363      333.56695      40477.697      25216.99       55           
   4824000  -7829.48        111.04159     -7940.5216      0.61640401     220.32704      268.06937      293.93433      302.42659      331.39906      40535.865      25253.228      60           
   4825000  -7827.6558      115.48981     -7943.1456      0.61640401     229.15314      314.02696      319.33349      295.77276      329.50652      40579.646      25280.503      58           
   4826000  -7828.047       112.1169      -7940.1639      0.61640401     222.46065      256.82913      301.15533      300.51678      332.01701      40647.607      25322.842      66           
   4827000  -7830.965       111.53989     -7942.5049      0.61640401     221.31576      312.96882      304.51881      288.90546      326.41458      40574.386      25277.226      65           
   4828000  -7827.8661      115.12379     -7942.9899      0.61640401     228.42687      330.98985      309.57038      307.97585      323.48125      40349.235      25136.96       65           
   4829000  -7831.8743      110.38983     -7942.2641      0.61640401     219.03382      312.59465      294.53245      294.9467       328.20417      40726.138      25371.765      59           
   4830000  -7829.7558      112.62305     -7942.3789      0.61640401     223.46495      308.04988      297.77276      307.06155      327.53537      40388.433      25161.38       58           
   4831000  -7828.9307      111.07818     -7940.0089      0.61640401     220.39964      249.08759      296.32499      300.98534      327.08669      40741.2        25381.149      57           
   4832000  -7827.9199      111.08065     -7939.0005      0.61640401     220.40454      319.21901      301.43647      290.90974      321.36344      40460.613      25206.347      65           
   4833000  -7827.3372      112.62822     -7939.9655      0.61640401     223.47521      301.84308      306.3197       293.69115      333.25803      40473.369      25214.294      66           
   4834000  -7827.8017      112.44442     -7940.2461      0.61640401     223.11052      276.96875      297.30822      309.29668      325.70652      40655.995      25328.067      72           
   4835000  -7826.6102      113.21218     -7939.8224      0.61640401     224.6339       241.49629      301.24275      311.46573      325.25168      40468.929      25211.528      69           
   4836000  -7829.8534      113.93451     -7943.7879      0.61640401     226.06713      238.05906      305.54188      311.33712      321.83752      40642.95       25319.94       67           
   4837000  -7826.9394      112.60084     -7939.5402      0.61640401     223.42087      248.17236      305.58709      301.61744      317.81987      40251.643      25076.162      69           
   4838000  -7829.5863      112.56704     -7942.1533      0.61640401     223.35381      230.34153      306.48788      300.602        319.69266      40736.889      25378.463      66           
   4839000  -7829.3532      112.33185     -7941.6851      0.61640401     222.88715      284.73553      295.31524      312.15083      319.1148       40208.816      25049.482      67           
   4840000  -7830.257       113.48704     -7943.744       0.61640401     225.17926      274.93702      310.09916      299.66038      316.65693      40758.378      25391.85       57           
   4841000  -7833.5844      111.43385     -7945.0183      0.61640401     221.10536      298.89654      296.4205       303.09981      317.29206      40599.045      25292.588      52           
   4842000  -7831.4855      110.41654     -7941.902       0.61640401     219.08682      267.49944      294.37054      298.82804      322.00992      40532.362      25251.046      51           
   4843000  -7832.6618      110.69818     -7943.36        0.61640401     219.64565      257.52097      297.25754      296.68773      324.24308      40794.488      25414.346      52           
   4844000  -7829.7799      111.14578     -7940.9257      0.61640401     220.53377      273.89861      300.6001       293.82797      325.96611      40361.28       25144.464      54           
   4845000  -7829.3757      109.15231     -7938.528       0.61640401     216.57835      337.71529      286.67394      296.59938      326.11925      40639.273      25317.65       55           
   4846000  -7830.6018      111.76743     -7942.3692      0.61640401     221.76724      279.90957      302.49395      294.72836      329.49009      40499.952      25230.855      57           
   4847000  -7831.9001      110.06196     -7941.9621      0.61640401     218.38327      246.71933      297.49176      293.01563      324.64355      40632.262      25313.282      68           
   4848000  -7826.7507      113.94638     -7940.6971      0.61640401     226.09068      279.91329      312.13233      299.10334      320.1114       40268.005      25086.355      60           
   4849000  -7829.8188      112.70044     -7942.5192      0.61640401     223.61851      278.57198      303.58937      301.25861      325.77891      40768.276      25398.017      60           
   4850000  -7831.1937      111.02364     -7942.2173      0.61640401     220.29143      330.97835      297.71061      295.05741      323.3959       40656.215      25328.204      54           
   4851000  -7826.1952      113.7388      -7939.934       0.61640401     225.6788       272.29736      309.75852      299.40588      328.85366      40566.641      25272.401      59           
   4852000  -7828.3104      113.92555     -7942.236       0.61640401     226.04935      291.05596      301.38975      312.15249      329.82703      40641.699      25319.161      68           
   4853000  -7830.8768      111.08474     -7941.9615      0.61640401     220.41266      296.47745      296.26376      297.44936      332.94671      40505.816      25234.508      70           
   4854000  -7831.3135      110.18142     -7941.495       0.61640401     218.6203       304.51557      295.17632      291.53382      333.59181      40522.718      25245.038      67           
   4855000  -7829.218       113.06769     -7942.2857      0.61640401     224.3472       304.87265      300.62402      305.76797      330.35888      40491.643      25225.679      57           
   4856000  -7833.9787      110.33085     -7944.3095      0.61640401     218.91681      323.59148      300.29156      286.46812      322.4634       40798.241      25416.684      62           
   4857000  -7830.2476      111.12602     -7941.3736      0.61640401     220.49456      307.02276      294.79284      301.68923      321.87222      40361.057      25144.325      52           
   4858000  -7833.1667      109.44136     -7942.6081      0.61640401     217.15188      285.28109      291.0075       296.74458      317.9108       40702.911      25357.295      57           
   4859000  -7828.5468      111.53769     -7940.0845      0.61640401     221.3114       257.3609       295.6877       306.4          319.1542       40418.273      25179.97       49           
   4860000  -7829.7679      110.72632     -7940.4942      0.61640401     219.70148      310.47817      302.24871      288.66653      316.61334      40470.716      25212.642      58           
   4861000  -7832.4374      109.75062     -7942.1881      0.61640401     217.76551      288.19169      297.42298      288.76426      320.6865       40484.619      25221.303      59           
   4862000  -7827.6359      112.97317     -7940.6091      0.61640401     224.15965      370.70237      302.73503      301.77021      317.12322      40559.075      25267.688      52           
   4863000  -7825.1888      113.05077     -7938.2396      0.61640401     224.31361      311.62904      308.96303      297.29727      311.55196      40540.753      25256.273      60           
   4864000  -7827.0815      111.57595     -7938.6575      0.61640401     221.38731      323.843        296.20044      302.59995      319.61579      40250.985      25075.752      63           
   4865000  -7828.1489      114.323       -7942.4719      0.61640401     226.83795      250.59695      303.2928       315.63914      323.59106      40695.733      25352.823      55           
   4866000  -7828.3653      112.59118     -7940.9565      0.61640401     223.40171      287.95391      303.7512       301.01147      319.69072      40461.671      25207.006      60           
   4867000  -7826.8187      112.37979     -7939.1985      0.61640401     222.98227      306.66247      297.61785      306.98715      321.60112      40547.468      25260.457      68           
   4868000  -7828.9167      111.66396     -7940.5806      0.61640401     221.56193      298.71646      298.72405      298.81423      328.78914      40384.379      25158.855      65           
   4869000  -7830.5982      112.70311     -7943.3013      0.61640401     223.6238       313.72734      304.34765      296.18466      334.04722      40539.803      25255.682      69           
   4870000  -7829.3467      110.90348     -7940.2502      0.61640401     220.053        315.70598      292.21066      300.70006      333.98985      40745.356      25383.738      58           
   4871000  -7830.1261      111.6804      -7941.8065      0.61640401     221.59455      339.01026      295.57465      300.79016      331.10044      40295.509      25103.49       59           
   4872000  -7832.1346      110.73416     -7942.8687      0.61640401     219.71703      310.76223      294.93676      295.1022       335.82226      40552.76       25263.754      66           
   4873000  -7829.5754      112.5738      -7942.1492      0.61640401     223.36722      261.74958      298.71171      306.99727      331.75461      40687.465      25347.673      59           
   4874000  -7827.985       112.49593     -7940.4809      0.61640401     223.21272      275.50973      298.42466      307.34364      327.29206      40536.74       25253.773      66           
   4875000  -7826.3495      112.53574     -7938.8852      0.61640401     223.29171      287.46552      303.54443      299.72292      325.30702      40142.531      25008.187      65           
   4876000  -7829.5849      112.22319     -7941.8081      0.61640401     222.67156      273.2731       303.81168      298.11271      322.98993      40990.914      25536.717      57           
   4877000  -7828.5362      112.00714     -7940.5434      0.61640401     222.24287      332.79429      298.07269      303.69925      314.01848      40539.19       25255.299      67           
   4878000  -7829.1298      112.04817     -7941.178       0.61640401     222.32429      330.2004       303.43614      295.07073      318.83883      40457.734      25204.554      64           
   4879000  -7830.8756      110.32537     -7941.2009      0.61640401     218.90593      357.66018      292.05281      296.63475      321.05981      40603.329      25295.257      70           
   4880000  -7829.6521      110.97117     -7940.6233      0.61640401     220.18732      301.19515      303.11044      289.41611      318.09964      40546.787      25260.032      62           
   4881000  -7828.0343      111.41427     -7939.4486      0.61640401     221.0665       285.36459      299.21211      297.67204      327.80324      40488.499      25223.72       76           
   4882000  -7826.9544      114.01118     -7940.9656      0.61640401     226.21926      273.32986      313.98425      296.87862      322.34173      40525.519      25246.783      65           
   4883000  -7829.2041      111.99737     -7941.2014      0.61640401     222.22348      304.53953      296.22459      306.83249      319.57048      40487.617      25223.17       67           
   4884000  -7829.1815      111.06037     -7940.2419      0.61640401     220.3643       312.29979      305.64524      284.38529      323.32489      40504.227      25233.518      67           
   4885000  -7831.0968      110.57038     -7941.6672      0.61640401     219.39208      259.71071      299.72824      292.36048      323.88737      40510.749      25237.581      61           
   4886000  -7828.9548      111.40017     -7940.355       0.61640401     221.03852      272.66945      299.53543      296.89036      327.35806      40204.854      25047.013      52           
   4887000  -7829.5932      109.48731     -7939.0805      0.61640401     217.24306      269.92013      287.32815      301.2054       325.28437      40792.27       25412.965      49           
   4888000  -7832.0446      108.13306     -7940.1777      0.61640401     214.55598      315.95996      283.41233      295.19188      324.27224      40574.419      25277.247      39           
   4889000  -7827.719       111.31791     -7939.0369      0.61640401     220.87531      290.22647      298.19299      298.13984      324.90582      40572.986      25276.354      55           
   4890000  -7828.9455      111.60986     -7940.5554      0.61640401     221.45459      264.26882      300.41625      299.75556      318.84171      40331.436      25125.872      53           
   4891000  -7825.8029      112.17022     -7937.9731      0.61640401     222.56645      274.54906      306.83388      295.73836      312.10805      40644.039      25320.619      57           
   4892000  -7824.6555      114.35772     -7939.0132      0.61640401     226.90686      271.61595      308.58911      307.94581      320.08334      40397.13       25166.798      60           
   4893000  -7827.3357      111.66808     -7939.0038      0.61640401     221.5701       253.6053       299.42065      302.05873      321.04305      40751.222      25387.392      58           
   4894000  -7826.2216      113.38916     -7939.6108      0.61640401     224.98504      231.13052      301.53486      312.71646      322.92601      40591.966      25288.178      59           
   4895000  -7828.916       112.54853     -7941.4645      0.61640401     223.31709      312.52988      306.28443      293.88336      326.16225      40576.647      25278.635      61           
   4896000  -7824.8175      114.68653     -7939.504       0.61640401     227.55928      275.6682       309.54423      306.2783       329.15989      40475.622      25215.697      54           
   4897000  -7827.1523      112.35776     -7939.51        0.61640401     222.93856      202.22675      304.94896      299.44725      328.54461      40420.008      25181.051      53           
   4898000  -7827.9682      112.53504     -7940.5033      0.61640401     223.29032      258.96286      307.01558      295.66745      325.83971      40602.437      25294.701      58           
   4899000  -7829.4494      112.06613     -7941.5155      0.61640401     222.35991      362.82812      308.59009      287.10141      314.13923      40237.122      25067.116      55           
   4900000  -7826.4424      112.90494     -7939.3473      0.61640401     224.02428      321.94994      301.4338       306.81617      311.74483      40713.171      25363.687      55           
   4901000  -7828.7959      112.59811     -7941.394       0.61640401     223.41546      334.12137      305.32681      296.76999      316.71036      40351.009      25138.065      58           
   4902000  -7831.5489      108.81822     -7940.3671      0.61640401     215.91547      278.89303      296.18433      283.17228      323.81338      40673.157      25338.759      51           
   4903000  -7824.2564      115.10924     -7939.3656      0.61640401     228.398        299.83888      309.65664      310.12726      320.3841       40618.914      25304.967      50           
   4904000  -7829.846       110.40138     -7940.2474      0.61640401     219.05674      285.90541      295.83884      296.10138      320.20436      40725.896      25371.614      54           
   4905000  -7827.1406      114.33962     -7941.4803      0.61640401     226.87095      236.45781      313.02405      302.39266      320.3107       40500.098      25230.946      51           
   4906000  -7829.7377      110.55716     -7940.2948      0.61640401     219.36584      305.3834       294.89965      298.09203      318.64705      40614.467      25302.196      48           
   4907000  -7826.1175      113.59707     -7939.7146      0.61640401     225.39759      294.4686       308.50411      301.8611       316.11053      40613.13       25301.363      54           
   4908000  -7827.7858      110.98245     -7938.7683      0.61640401     220.2097       305.98488      302.96122      289.78174      316.21075      40409.247      25174.347      51           
   4909000  -7822.7571      114.00447     -7936.7615      0.61640401     226.20594      301.44423      310.57114      301.14394      317.0493       40479.821      25218.314      46           
   4910000  -7828.1836      112.517       -7940.7006      0.61640401     223.25453      296.25275      301.97086      300.72425      326.35885      40530.277      25249.747      52           
   4911000  -7825.1213      112.99336     -7938.1147      0.61640401     224.19971      317.8499       303.06864      300.25169      331.49512      40692.732      25350.954      41           
   4912000  -7826.6891      114.23574     -7940.9248      0.61640401     226.66482      341.38826      315.33858      289.84281      333.48317      40515.744      25240.693      45           
   4913000  -7831.3834      109.77126     -7941.1546      0.61640401     217.80647      375.2367       292.82104      289.25931      328.57806      40547.2        25260.29       50           
   4914000  -7828.4207      112.3439      -7940.7646      0.61640401     222.91106      275.66786      300.8901       301.38513      327.113        40394.09       25164.905      44           
   4915000  -7824.5848      115.41239     -7939.9972      0.61640401     228.99952      254.43683      310.18043      312.59576      322.66887      40683.887      25345.444      42           
   4916000  -7827.5015      111.40322     -7938.9047      0.61640401     221.04458      280.43962      300.15398      296.88776      320.0023       40488.201      25223.534      36           
   4917000  -7822.6319      114.59183     -7937.2237      0.61640401     227.37138      316.1084       308.02836      306.62712      324.93055      40449.043      25199.139      42           
   4918000  -7825.5282      113.08901     -7938.6172      0.61640401     224.3895       310.03832      307.30529      295.52272      329.4261       40672.833      25338.557      46           
   4919000  -7828.6544      111.16384     -7939.8183      0.61640401     220.5696       339.51285      292.21202      301.33635      333.13056      40427.411      25185.663      46           
   4920000  -7828.6748      114.22472     -7942.8995      0.61640401     226.64295      324.43816      307.68495      301.73018      333.8025       40496.274      25228.563      41           
   4921000  -7827.4922      112.77772     -7940.2699      0.61640401     223.77184      332.09072      306.14826      293.41234      331.48207      40403.312      25170.65       40           
   4922000  -7829.7884      111.65663     -7941.445       0.61640401     221.54739      265.4221       299.93246      296.82102      330.70878      40622.559      25307.237      35           
   4923000  -7830.5117      111.38838     -7941.9001      0.61640401     221.01513      288.90119      291.62075      307.29283      327.89254      40590.161      25287.054      37           
   4924000  -7831.8803      110.24562     -7942.126       0.61640401     218.74769      302.4158       296.5372       293.48038      317.88015      40511.396      25237.984      37           
   4925000  -7824.0141      112.86696     -7936.881       0.61640401     223.94892      279.87057      308.22056      295.75591      321.89697      40609.597      25299.162      45           
   4926000  -7829.1686      110.48487     -7939.6535      0.61640401     219.2224       244.23992      300.66908      290.94643      319.11666      40650.263      25324.497      40           
   4927000  -7829.8893      110.60288     -7940.4921      0.61640401     219.45655      274.49819      294.36073      299.9258       319.76378      40554.761      25265          40           
   4928000  -7826.8554      113.54091     -7940.3963      0.61640401     225.28614      326.37718      304.15658      304.69271      322.98787      40505.377      25234.235      41           
   4929000  -7829.4472      110.18876     -7939.6359      0.61640401     218.63487      324.5128       297.41216      288.82183      326.0187       40585.425      25284.103      41           
   4930000  -7830.5429      112.3291      -7942.872       0.61640401     222.88169      327.34147      300.10159      300.4013       327.16127      40472.118      25213.515      51           
   4931000  -7829.7834      109.84795     -7939.6313      0.61640401     217.95863      245.89966      293.04162      295.89547      328.10576      40538.727      25255.011      50           
   4932000  -7825.6499      113.35857     -7939.0084      0.61640401     224.92435      315.92473      305.25994      302.97314      319.3144       40509.736      25236.95       66           
   4933000  -7829.5286      111.07141     -7940.6         0.61640401     220.38621      297.24097      299.86599      295.29073      318.00487      40584.408      25283.47       66           
   4934000  -7829.6072      110.98313     -7940.5903      0.61640401     220.21104      309.45072      295.86317      299.31865      320.22421      40549.626      25261.801      63           
   4935000  -7828.9788      111.84831     -7940.8271      0.61640401     221.92771      303.29841      299.22486      300.88826      321.46073      40604.579      25296.036      65           
   4936000  -7829.1618      112.2021      -7941.3639      0.61640401     222.62971      307.75401      303.3483       295.58429      328.15772      40582.633      25282.364      66           
   4937000  -7829.3661      112.04329     -7941.4094      0.61640401     222.31459      318.36012      299.43887      301.75767      318.85315      40652.491      25325.884      63           
   4938000  -7828.5654      113.40934     -7941.9747      0.61640401     225.0251       336.84815      304.62242      304.68005      312.6352       40589.697      25286.764      63           
   4939000  -7831.4929      110.22956     -7941.7224      0.61640401     218.71582      338.25951      296.76249      293.6079       307.93944      40457.318      25204.295      60           
   4940000  -7830.2401      111.07032     -7941.3105      0.61640401     220.38405      337.04238      294.76899      301.50568      314.52339      40611.402      25300.286      58           
   4941000  -7825.4498      114.69046     -7940.1403      0.61640401     227.56708      389.89392      310.14514      303.90539      306.31932      40443.65       25195.779      69           
   4942000  -7829.8396      111.82284     -7941.6625      0.61640401     221.87718      304.99058      299.45859      301.97706      314.3004       40458.458      25205.005      68           
   4943000  -7827.4242      113.45737     -7940.8815      0.61640401     225.1204       262.04943      295.02624      322.8814       316.71464      40413.137      25176.771      63           
   4944000  -7827.4359      113.00476     -7940.4406      0.61640401     224.22234      307.26652      298.93977      311.84601      312.84536      40732.456      25375.701      52           
   4945000  -7832.5232      110.43868     -7942.9619      0.61640401     219.13076      300.12586      292.18555      303.28472      311.42442      40558.283      25267.194      56           
   4946000  -7825.9371      112.62571     -7938.5628      0.61640401     223.47023      293.38266      309.46299      293.10536      316.0024       40625.85       25309.287      49           
   4947000  -7823.6669      115.74986     -7939.4167      0.61640401     229.66911      277.27447      310.54929      313.66336      324.52678      40491.455      25225.561      50           
   4948000  -7828.0931      112.23928     -7940.3324      0.61640401     222.70348      372.90384      300.99128      298.68572      316.6168       40380.978      25156.736      54           
   4949000  -7832.2925      108.61518     -7940.9077      0.61640401     215.51258      289.47249      289.29663      292.93607      317.43887      40674.302      25339.473      51           
   4950000  -7825.2204      112.9471      -7938.1675      0.61640401     224.10793      289.40383      303.44136      305.91076      311.76572      40298.466      25105.332      59           
   4951000  -7823.6943      112.39057     -7936.0849      0.61640401     223.00366      267.59585      306.89387      297.78985      310.62085      40842.557      25444.292      51           
   4952000  -7826.7928      112.75561     -7939.5484      0.61640401     223.72798      274.38767      302.273        309.25545      301.61674      40570.064      25274.534      48           
   4953000  -7828.4404      110.94604     -7939.3865      0.61640401     220.13745      272.52393      302.57275      295.91438      299.95352      40640.303      25318.291      56           
   4954000  -7829.1048      110.97227     -7940.077       0.61640401     220.1895       258.55079      304.4853       293.54781      302.89364      40264.6        25084.234      62           
   4955000  -7826.1621      114.49455     -7940.6566      0.61640401     227.17835      258.16166      305.68034      317.25929      305.67316      40779.585      25405.062      54           
   4956000  -7830.4338      111.65307     -7942.0869      0.61640401     221.54032      286.58015      305.50788      292.7672       313.36304      40428.568      25186.384      54           
   4957000  -7827.7708      112.13847     -7939.9093      0.61640401     222.50345      363.29435      289.29291      316.47623      314.08057      40465.174      25209.189      53           
   4958000  -7826.6009      112.63716     -7939.2381      0.61640401     223.49295      298.73854      311.6634       288.67037      320.03497      40843.072      25444.614      51           
   4959000  -7829.1968      111.87009     -7941.0669      0.61640401     221.97093      393.23323      296.72139      302.58324      312.9468       40338.622      25130.349      48           
   4960000  -7827.6814      112.55553     -7940.2369      0.61640401     223.33098      377.50194      298.11497      307.46229      308.58111      40774.084      25401.635      48           
   4961000  -7830.2407      112.08024     -7942.3209      0.61640401     222.38791      373.98989      302.50324      298.82191      302.59453      40364.464      25146.448      51           
   4962000  -7825.5689      113.00201     -7938.5709      0.61640401     224.21687      304.76889      310.83559      296.89074      301.95952      40824.791      25433.225      55           
   4963000  -7827.569       112.61666     -7940.1857      0.61640401     223.45228      265.29086      312.25199      293.85753      302.14423      40213.348      25052.305      54           
   4964000  -7823.9269      113.57617     -7937.503       0.61640401     225.35611      306.78495      302.37757      314.0513       300.41705      40792.472      25413.09       56           
   4965000  -7827.3562      112.17592     -7939.5322      0.61640401     222.57776      268.41134      311.76212      290.29882      306.17831      40362.657      25145.322      59           
   4966000  -7824.9783      113.65693     -7938.6352      0.61640401     225.51637      300.0108       305.73017      308.10605      308.39575      40653.819      25326.711      62           
   4967000  -7829.6795      111.17422     -7940.8537      0.61640401     220.5902       327.80604      295.73553      302.87337      307.93307      40688.272      25348.175      57           
   4968000  -7826.0824      111.02018     -7937.1026      0.61640401     220.28456      311.58743      304.95356      289.67741      304.41497      40159.599      25018.82       65           
   4969000  -7830.273       111.31505     -7941.5881      0.61640401     220.86963      327.33031      297.00751      303.19223      302.74832      40747.138      25384.848      63           
   4970000  -7830.2126      110.79627     -7941.0088      0.61640401     219.84027      335.82727      299.22903      295.59469      301.93965      40260.973      25081.975      65           
   4971000  -7830.95        110.09843     -7941.0484      0.61640401     218.45564      316.59114      293.64242      302.24162      292.17902      40899.222      25479.594      62           
   4972000  -7828.3028      110.62605     -7938.9288      0.61640401     219.50254      298.48223      300.78435      296.29982      293.6668       40431.535      25188.232      65           
   4973000  -7829.8499      108.05721     -7937.9071      0.61640401     214.40549      298.36866      287.9616       295.89066      294.29339      40600.003      25293.185      65           
   4974000  -7828.1446      111.56001     -7939.7046      0.61640401     221.35568      339.18795      291.46071      314.99802      291.88221      40061.179      24957.506      67           
   4975000  -7831.6835      110.28596     -7941.9695      0.61640401     218.82773      363.59842      295.01797      297.50749      295.1541       40957.967      25516.191      71           
   4976000  -7832.2185      111.3508      -7943.5693      0.61640401     220.94057      309.36164      309.44576      287.75046      295.34914      40495.238      25227.918      66           
   4977000  -7829.6792      108.44504     -7938.1243      0.61640401     215.175        364.97374      289.62688      293.27368      293.05842      40426.15       25184.877      54           
   4978000  -7828.1794      114.86083     -7943.0402      0.61640401     227.90512      289.04861      313.45426      308.66699      297.93071      40879.931      25467.576      53           
   4979000  -7832.2712      108.76974     -7941.041       0.61640401     215.81928      300.11044      290.52933      298.62782      289.25269      40254.763      25078.106      56           
   4980000  -7827.349       112.78749     -7940.1365      0.61640401     223.79123      350.92965      306.48014      300.68401      293.8355       40681.703      25344.083      66           
   4981000  -7829.1714      111.67181     -7940.8432      0.61640401     221.57751      303.27141      298.25734      305.84745      301.10777      40344.49       25134.005      66           
   4982000  -7827.8879      111.26719     -7939.1551      0.61640401     220.77467      253.47613      300.45825      302.61307      300.9923       40838.133      25441.537      64           
   4983000  -7828.8797      112.07224     -7940.9519      0.61640401     222.37205      272.45714      303.64179      302.40762      301.76221      40286.642      25097.966      58           
   4984000  -7827.2783      111.06034     -7938.3386      0.61640401     220.36424      256.42638      296.84728      305.52404      303.10209      40600.065      25293.224      59           
   4985000  -7830.5629      109.81144     -7940.3744      0.61640401     217.88619      288.01078      296.21612      296.00974      300.08208      40465.052      25209.113      58           
   4986000  -7830.3934      112.392       -7942.7854      0.61640401     223.00651      303.19697      302.76213      305.31221      298.12029      40523.505      25245.528      63           
   4987000  -7829.2815      111.45548     -7940.737       0.61640401     221.14828      321.49133      290.69729      316.71839      292.70454      40621.825      25306.78       52           
   4988000  -7831.7442      111.03004     -7942.7743      0.61640401     220.30412      251.93854      296.10987      308.22825      296.24684      40243.933      25071.359      57           
   4989000  -7830.3775      109.97572     -7940.3532      0.61640401     218.21216      292.94335      295.48262      298.32802      299.02152      40947.446      25509.637      57           
   4990000  -7832.3293      107.53996     -7939.8693      0.61640401     213.37916      271.12285      291.63407      286.41459      301.66371      40205.466      25047.395      62           
   4991000  -7831.4661      109.75025     -7941.2163      0.61640401     217.76479      342.01836      291.88726      299.84457      296.83398      40589.517      25286.652      57           
   4992000  -7833.8184      109.91931     -7943.7378      0.61640401     218.10023      332.2451       298.97999      291.05242      296.79117      40452.225      25201.122      58           
   4993000  -7830.6733      109.32991     -7940.0032      0.61640401     216.93074      363.35991      295.00289      290.2593       301.86982      40706.451      25359.501      47           
   4994000  -7828.1821      113.49208     -7941.6742      0.61640401     225.18925      328.0491       308.6186       303.34231      299.56791      40370.862      25150.434      51           
   4995000  -7830.2535      110.18146     -7940.435       0.61640401     218.62037      331.71667      305.15235      286.20343      289.47613      40589.074      25286.377      43           
   4996000  -7830.576       110.05736     -7940.6334      0.61640401     218.37414      370.53604      297.54131      294.85593      289.51741      40596.856      25291.225      46           
   4997000  -7824.3643      112.85412     -7937.2184      0.61640401     223.92343      336.9087       303.31546      308.16025      291.8289       40346.577      25135.304      45           
   4998000  -7827.4046      110.98437     -7938.389       0.61640401     220.21351      295.45218      304.94604      291.27473      300.3461       40783.472      25407.484      45           
   4999000  -7831.4721      108.76739     -7940.2395      0.61640401     215.81461      248.41065      290.96628      296.12077      306.26406      40332.287      25126.402      48           
   5000000  -7832.2561      109.81411     -7942.0702      0.61640401     217.89149      225.7161       288.87635      306.91114      310.85045      40739.741      25380.24       48           
   5000083  -7832.3361      109.86272     -7942.1988      0.61640401     217.98793      224.00694      293.14669      301.54525      308.73315      40760.37       25393.091      48           
Loop time of 9002.98 on 24 procs for 5000000 steps with 3900 atoms

Performance: 47.984 ns/day, 0.500 hours/ns, 555.372 timesteps/s, 2.166 Matom-step/s
93.4% CPU use with 24 MPI tasks x 1 OpenMP threads

MPI task timing breakdown:
Section |  min time  |  avg time  |  max time  |%varavg| %total
---------------------------------------------------------------
Pair    | 3165.7     | 4687.6     | 6857.1     |1906.9 | 52.07
Bond    | 1.1313     | 1.8626     | 7.5536     | 122.8 |  0.02
Neigh   | 221.25     | 224.93     | 229        |  14.8 |  2.50
Comm    | 1627.5     | 3769.8     | 5210.4     |2068.5 | 41.87
Output  | 8.3171     | 9.1924     | 10.023     |  17.1 |  0.10
Modify  | 90.192     | 129.47     | 242.47     | 390.3 |  1.44
Other   |            | 180.1      |            |       |  2.00

Nlocal:          162.5 ave         267 max           0 min
Histogram: 8 0 0 0 1 1 0 0 1 13
Nghost:        5669.92 ave        5876 max        5237 min
Histogram: 2 0 0 0 0 7 7 0 0 8
Neighs:              0 ave           0 max           0 min
Histogram: 24 0 0 0 0 0 0 0 0 0

Total # of neighbors = 0
Ave neighs/atom = 0
Ave special neighs/atom = 0.073846154
Neighbor list builds = 96281
Dangerous builds = 0

print                   "simulation done."
simulation done.

#--------------------------------------------------------------------------------------------------------------------

#max temperature should approx. 1800 K
Total wall time: 2:30:03
