
units                   metal #Changed from real to metal
dimension               3
boundary                p p f #changed from p p p to p p f
atom_style              full
#--------------------------------------------------------------------------------

# Variables
variable                Nsteps equal 100000
variable                dt equal 5.0
variable                seed equal 20000 #12345 # random number seed
#--------------------------------------------------------------------------------

# creating simulation box
read_data               data.Ti extra/bond/types 1 extra/bond/per/atom 2
Reading data file ...
  orthogonal box = (0 0 0) to (100 100 800)
  2 by 1 by 12 MPI processor grid
Finding 1-2 1-3 1-4 neighbors ...
  special bond factors lj:    0        0        0       
  special bond factors coul:  0        0        0       
     0 = max # of 1-2 neighbors
     0 = max # of 1-3 neighbors
     0 = max # of 1-4 neighbors
     1 = max # of special neighbors
  special bonds CPU = 0.001 seconds
  read_data CPU = 0.006 seconds

#change_box all z final 0 ${Lz} units box #for only change in Lz
change_box              all x final 0 ${Lx} y final 0 ${Ly} z final 0 ${Lz} units box #for change in Lz, Lx, and Ly
change_box              all x final 0 50.150000000000006 y final 0 ${Ly} z final 0 ${Lz} units box 
change_box              all x final 0 50.150000000000006 y final 0 50.150000000000006 z final 0 ${Lz} units box 
change_box              all x final 0 50.150000000000006 y final 0 50.150000000000006 z final 0 103.83080136205625 units box 
Changing box ...
  orthogonal box = (0 0 0) to (50.15 100 800)
  orthogonal box = (0 0 0) to (50.15 50.15 800)
  orthogonal box = (0 0 0) to (50.15 50.15 103.8308)

timestep                0.001

neighbor                1.5 bin
#-----------------------------------------------------------------------------------

#defining Ti region
group                   titanium type 1
0 atoms in group titanium

region                  Ti_zone block INF INF INF INF INF 16 units box
#changed from 8
region                  bottom block INF INF INF INF INF 4 units box #Ti bottom layer region

region                  middle block INF INF INF INF 4 8 units box #Ti middle layer

region                  upper block INF INF INF INF 8 16 units box #Ti upper layer region

#---------------------------------------------------------------------------------------------
#obseration regions
region                  obs_Ti block INF INF INF INF 8 16 units box #observation region - to observe temperature of moving Ti layer
#changed from 3 8

region                  obs block INF INF INF INF 16 19 units box #observation region - for physisorption effect
#changed from 8 11

region                  obs_O2 block INF INF INF INF 19 INF units box #observation region - for gas temperature
#changed from 11
#-------------------------------------------------------------------------------

#lennard-jones
pair_style              hybrid lj/cut 15.0 eam/fs #changed from 15 to 10

pair_coeff              * * eam/fs Ti1.eam.fs Ti NULL #Ti-Ti
pair_coeff              2 2 lj/cut 0.0044640704 3.00578 #O-O #taken from: file://ifs.eng.cam.ac.uk/users/lkm41/Downloads/Short-Time_Oxidation_Behavior_of_Low-Carbon_Low-Si.pdf
pair_coeff              1 2 lj/cut 0.0105961 2.60289 #Ti-O #mixing lennard jones potential

# O2 Bonds
bond_style              harmonic
bond_coeff              1 847.0 1.21

special_bonds           lj 0.0 0.0 1.0
Finding 1-2 1-3 1-4 neighbors ...
  special bond factors lj:    0        0        1       
  special bond factors coul:  0        0        0       
     0 = max # of 1-2 neighbors
     0 = max # of 1-3 neighbors
     0 = max # of 1-4 neighbors
     1 = max # of special neighbors
  special bonds CPU = 0.001 seconds

#creating atoms for Ti_zone
lattice                 hcp 2.95
Lattice spacing in x,y,z = 2.95 5.1095499 4.8173298
create_atoms            1 region Ti_zone
Created 2329 atoms
  using lattice units in orthogonal box = (0 0 0) to (50.15 50.15 103.8308)
  create_atoms CPU = 0.006 seconds

#---------------------------------------------------------------------------------------
#Ti_zone groups
group                   bottom region bottom
663 atoms in group bottom
group                   middle region middle
663 atoms in group middle
group                   upper region upper
1003 atoms in group upper
#-------------------------------------------------------------------------------------

#creating O2 molecules
molecule                O2 O2.txt #made from given file
Read molecule template O2:
# O2 molecule
  1 molecules
  0 fragments
  0 bodies
  2 atoms with max type 1
  1 bonds with max type 1
  0 angles with max type 0
  0 dihedrals with max type 0
  0 impropers with max type 0

region                  gas block INF INF INF INF 19.0 ${Lz_minus_one} units box #gas region above  Ti slab
region                  gas block INF INF INF INF 19.0 102.83080136205625 units box 


create_atoms            1 random ${N} ${seed} gas mol O2 ${seed} units box
create_atoms            1 random 94 ${seed} gas mol O2 ${seed} units box
create_atoms            1 random 94 20000 gas mol O2 ${seed} units box
create_atoms            1 random 94 20000 gas mol O2 20000 units box
Created 188 atoms
  using box units in orthogonal box = (0 0 0) to (50.15 50.15 103.8308)
  create_atoms CPU = 0.000 seconds

group                   O2_zone region gas
188 atoms in group O2_zone

group                   mobile subtract all bottom middle
1191 atoms in group mobile

fix                     freeze bottom setforce 0.0 0.0 0.0

fix                     balance all balance 5000 1.1 shift xyz 5 1.05

#obervation group for physisorption
group                   obs dynamic all region obs every 1000
dynamic group obs defined
#obervation group for titanium layer
group                   obs_Ti dynamic all region obs_Ti every 1000
dynamic group obs_Ti defined

#----------------------------------------------------------------------------------------------------------------------
#observation for pressure

variable                zhi equal ${Lz}
variable                zhi equal 103.83080136205625
variable                zlo equal ${Lz}-200
variable                zlo equal 103.83080136205625-200

region                  gas_obs_zone block INF INF INF INF ${zlo} ${zhi} units box
region                  gas_obs_zone block INF INF INF INF -96.1691986379438 ${zhi} units box
region                  gas_obs_zone block INF INF INF INF -96.1691986379438 103.830801362056 units box

group                   O2_in_obs_zone dynamic all region gas_obs_zone every 100
dynamic group O2_in_obs_zone defined

variable                O2_obs_zone_volume equal lx*ly*(${zhi}-${zlo})
variable                O2_obs_zone_volume equal lx*ly*(103.830801362056-${zlo})
variable                O2_obs_zone_volume equal lx*ly*(103.830801362056--96.1691986379438)

compute                 O2_zone_temp O2_in_obs_zone temp

compute                 O2stress O2_in_obs_zone stress/atom O2_zone_temp
compute                 sum_stress O2_in_obs_zone reduce sum c_O2stress[1] c_O2stress[2] c_O2stress[3]
variable                O2pressure equal (-1)*(c_sum_stress[1]+c_sum_stress[2]+c_sum_stress[3])/(3*v_O2_obs_zone_volume)
#----------------------------------------------------------------------------------------------------------------------

#obervation group for O2
group                   obs_O2 dynamic O2_zone region obs_O2 every 1000
dynamic group obs_O2 defined
minimize                1e-6 1e-6 1000 10000 # shift atom locations to minimize the potential energy of the system. Helps if we accidentally introduce atoms that are overlapping and repel each other very strongly.
WARNING: Using a manybody potential with bonds/angles/dihedrals and special_bond exclusions (src/pair.cpp:251)
Neighbor list info ...
  update: every = 1 steps, delay = 0 steps, check = yes
  max neighbors/atom: 2000, page size: 100000
  master list distance cutoff = 16.5
  ghost atom cutoff = 16.5
  binsize = 8.25, bins = 7 7 13
  3 neighbor lists, perpetual/occasional/extra = 3 0 0
  (1) pair lj/cut, perpetual, skip from (3)
      attributes: half, newton on
      pair build: skip
      stencil: none
      bin: none
  (2) pair eam/fs, perpetual, skip from (3)
      attributes: half, newton on
      pair build: skip
      stencil: none
      bin: none
  (3) neighbor class addition, perpetual
      attributes: half, newton on
      pair build: half/bin/newton
      stencil: half/bin/3d
      bin: standard
Per MPI rank memory allocation (min/avg/max) = 12.38 | 20.99 | 23.04 Mbytes
   Step          Temp          E_pair         E_mol          TotEng         Press          Volume    
         0   0             -11568.716      0.716562      -11567.999      3997.9031      261136.8     
        52   0             -11871.652      0.00073891135 -11871.651     -1153.6903      261136.8     
Loop time of 0.239369 on 24 procs for 52 steps with 2517 atoms

99.1% CPU use with 24 MPI tasks x 1 OpenMP threads

Minimization stats:
  Stopping criterion = energy tolerance
  Energy initial, next-to-last, final = 
     -11567.9990125464  -11871.6459725639  -11871.6507718729
  Force two-norm initial, final = 1603.2443 3.6030319
  Force max component initial, final = 1041.957 0.6910655
  Final line search alpha, max atom move = 0.095552476 0.066033019
  Iterations, force evaluations = 52 94

MPI task timing breakdown:
Section |  min time  |  avg time  |  max time  |%varavg| %total
---------------------------------------------------------------
Pair    | 0.21272    | 0.21941    | 0.2225     |   0.9 | 91.66
Bond    | 2.0805e-05 | 3.1654e-05 | 4.7443e-05 |   0.0 |  0.01
Neigh   | 0.0046009  | 0.0047581  | 0.0049292  |   0.2 |  1.99
Comm    | 0.0016075  | 0.0063898  | 0.017009   |   7.3 |  2.67
Output  | 0          | 0          | 0          |   0.0 |  0.00
Modify  | 1.0518e-05 | 3.6117e-05 | 0.00023687 |   0.0 |  0.02
Other   |            | 0.008747   |            |       |  3.65

Nlocal:        104.875 ave         675 max           2 min
Histogram: 20 0 0 0 0 0 0 2 0 2
Nghost:        1270.71 ave        4086 max          74 min
Histogram: 16 0 0 0 1 1 0 0 0 6
Neighs:              0 ave           0 max           0 min
Histogram: 24 0 0 0 0 0 0 0 0 0

Total # of neighbors = 0
Ave neighs/atom = 0
Ave special neighs/atom = 0.074692094
Neighbor list builds = 1
Dangerous builds = 0

velocity                all create ${T} ${seed} rot yes mom no
velocity                all create 300 ${seed} rot yes mom no
velocity                all create 300 20000 rot yes mom no
velocity                bottom set 0.0 0.0 0.
velocity                middle create ${T} ${seed} mom yes rot no dist gaussian
velocity                middle create 300 ${seed} mom yes rot no dist gaussian
velocity                middle create 300 20000 mom yes rot no dist gaussian

#variable                P equal ${P}
#fix                     integrator mobile npt temp ${T} ${T} 100 z 1.0 1.0 1000
#fix                     integrator mobile npt temp ${T} ${T} 100 x 1.0 1.0 1000 y 1.0 1.0 1000
#fix                      integrator mobile npt temp ${T} ${T} 100 x ${P} ${P} 1000 y ${P} ${P} 1000
fix                     integrator_O2 O2_zone nvt temp ${T} ${T} 100
fix                     integrator_O2 O2_zone nvt temp 300 ${T} 100
fix                     integrator_O2 O2_zone nvt temp 300 300 100

fix                     integrator_Ti upper nve
fix                     Ti_thermostat middle nvt temp ${T} ${T} 0.1
fix                     Ti_thermostat middle nvt temp 300 ${T} 0.1
fix                     Ti_thermostat middle nvt temp 300 300 0.1

fix                     zwalls all wall/reflect zlo EDGE zhi EDGE #reflective walls on the top and bottom surface to stop O2 molecules being lost

#----------------------------------------------------------------------------------------------------------------------

#count the number of atoms
variable                n_obs equal count(obs)

#measure the temperature of physisorption region
compute                 obsTemp obs temp

#measure temperature of Ti
compute                 obs_TiTemp obs_Ti temp

#measure temperature of O2
compute                 obs_O2Temp obs_O2 temp

#measure temperature of middle layer
compute                 T_middle middle temp

#____________________________________________________________________________________________________________________________

#outputs
thermo_style            custom step etotal ke pe density temp c_obsTemp c_obs_TiTemp c_T_middle c_obs_O2Temp press v_O2pressure v_n_obs # what to print
thermo                  1000 # print every 1000 timesteps

dump                    traj all custom 1000 dumps_shock/dump_${T}_${P}.dump id type x y z vx vy vz
dump                    traj all custom 1000 dumps_shock/dump_300_${P}.dump id type x y z vx vy vz
dump                    traj all custom 1000 dumps_shock/dump_300_15.dump id type x y z vx vy vz

restart                 250000 restarts_shock/restart.*

run                     5000000
WARNING: Using a manybody potential with bonds/angles/dihedrals and special_bond exclusions (src/pair.cpp:251)
Per MPI rank memory allocation (min/avg/max) = 11.42 | 19.12 | 20.91 Mbytes
   Step         TotEng         KinEng         PotEng        Density          Temp        c_obsTemp     c_obs_TiTemp    c_T_middle    c_obs_O2Temp      Press       v_O2pressure     v_n_obs    
        52  -11799.349      72.302142     -11871.651      0.72802911     222.31864      0              302.91651      300            306.0501      -857.95571     -445.41115      0            
      1000  -11766.601      67.429521     -11834.031      0.72802911     207.33604      324.04653      280.25681      293.41152      252.05755     -1558.1162     -808.90229      16           
      2000  -11763.871      72.747084     -11836.618      0.72802911     223.68678      321.78556      314.4487       302.99073      251.66434     -497.44598     -258.25107      8            
      3000  -11778.792      71.968102     -11850.76       0.72802911     221.29152      433.66525      308.95752      294.01062      275.75689     -248.57738     -129.04994      11           
      4000  -11782.418      72.896812     -11855.315      0.72802911     224.14717      247.60811      305.91437      307.69484      292.3593      -1194.9985     -620.38824      17           
      5000  -11780.968      72.446972     -11853.415      0.72802911     222.76398      318.89402      297.65011      308.8671       306.21849     -1456.3104     -756.04939      30           
      6000  -11780.975      73.879542     -11854.854      0.72802911     227.16892      432.88532      301.70803      315.7658       306.65211     -1401.3871     -727.53572      24           
      7000  -11782.376      69.795746     -11852.172      0.72802911     214.61184      269.47057      288.50365      295.94973      296.99077     -923.61902     -479.50052      18           
      8000  -11780.573      74.429501     -11855.003      0.72802911     228.85997      323.76676      315.45028      312.63175      279.52865     -1184.932      -615.1622       31           
      9000  -11781.382      72.107308     -11853.489      0.72802911     221.71956      286.31721      314.57612      292.20564      262.99564     -1396.4166     -724.9553       28           
     10000  -11785.301      70.402015     -11855.703      0.72802911     216.47603      313.91448      296.82591      299.14589      258.30154     -1521.963      -790.13318      27           
     11000  -11784.4        71.548844     -11855.949      0.72802911     220.00236      316.32731      305.11995      298.45403      262.63295     -1275.0388     -661.94151      36           
     12000  -11784.18       73.729344     -11857.909      0.72802911     226.70709      241.08906      315.19042      311.86624      266.03619     -1203.148      -624.61909      34           
     13000  -11788.795      69.459365     -11858.254      0.72802911     213.57752      301.23227      291.21221      290.29255      283.46766     -1305.9503     -677.98934      46           
     14000  -11784.683      72.145433     -11856.829      0.72802911     221.83679      287.6072       302.726        301.88907      298.36607     -1408.0126     -730.9754       44           
     15000  -11784.852      74.290186     -11859.142      0.72802911     228.43159      340.32353      308.0712       315.34109      298.28682     -1522.8861     -790.61243      48           
     16000  -11785.229      73.512118     -11858.741      0.72802911     226.03915      353.99601      312.94742      298.38066      298.43767     -1556.7565     -808.19638      42           
     17000  -11785.075      71.446574     -11856.522      0.72802911     219.6879       301.66918      297.39762      303.86064      284.83663     -1496.2571     -776.78785      49           
     18000  -11785.922      71.370107     -11857.292      0.72802911     219.45277      332.43453      293.29546      310.33713      268.8134      -1268.751      -658.67715      53           
     19000  -11786.453      70.407816     -11856.861      0.72802911     216.49387      247.6981       313.19313      277.42329      260.30453     -1207.0744     -626.65753      41           
     20000  -11787.079      70.256435     -11857.335      0.72802911     216.02839      284.71565      292.27305      304.10443      262.75054     -1280.128      -664.58359      35           
     21000  -11787.756      70.252099     -11858.008      0.72802911     216.01506      247.2027       295.2111       300.27444      269.74041     -1316.9068     -683.67746      40           
     22000  -11786.244      71.006317     -11857.251      0.72802911     218.33417      306.20717      297.70502      300.40196      275.97205     -1490.9032     -774.00839      40           
     23000  -11787.245      69.95653      -11857.201      0.72802911     215.10623      284.80198      289.56471      300.19128      281.29158     -1238.6042     -643.02635      34           
     24000  -11787.71       70.318231     -11858.028      0.72802911     216.21841      370.48365      292.05414      296.13139      275.79446     -1305.6029     -677.80899      47           
     25000  -11788.1        69.799715     -11857.899      0.72802911     214.62405      333.45255      300.00687      282.17726      272.24326     -1125.0451     -584.07165      41           
     26000  -11787.268      70.330055     -11857.598      0.72802911     216.25476      285.99754      299.66694      295.40922      257.1388      -1396.9267     -725.22008      34           
     27000  -11785.769      70.011995     -11855.781      0.72802911     215.27677      320.68867      294.29243      298.51522      254.10604     -1348.6325     -700.14794      37           
     28000  -11789.69       68.781281     -11858.472      0.72802911     211.49251      305.81114      293.34141      285.11049      258.30216     -1467.4316     -761.823        43           
     29000  -11785.213      71.609562     -11856.823      0.72802911     220.18906      387.19789      304.07363      298.73814      250.24816     -1538.5037     -798.72037      45           
     30000  -11787.209      72.026263     -11859.235      0.72802911     221.47036      343.11296      304.09137      303.69509      262.0527      -1117.7061     -580.26159      43           
     31000  -11788.197      71.533718     -11859.731      0.72802911     219.95585      288.99652      303.62799      300.15498      269.45814     -1255.52       -651.80823      33           
     32000  -11789.251      68.554822     -11857.806      0.72802911     210.79618      299.88747      282.19658      295.72807      273.38384     -1302.9755     -676.44496      41           
     33000  -11788.224      72.51025      -11860.735      0.72802911     222.95855      323.34086      307.52036      303.50629      270.09692     -1552.8868     -806.1874       45           
     34000  -11784.825      73.499914     -11858.325      0.72802911     226.00162      375.75754      306.89043      313.63997      266.34151     -1452.0761     -753.85113      43           
     35000  -11784.157      72.787366     -11856.945      0.72802911     223.81064      392.21631      301.07791      313.75405      267.9384      -1352.8692     -702.34748      36           
     36000  -11786.104      72.272281     -11858.376      0.72802911     222.22683      380.3604       306.45103      304.70788      251.53687     -1372.2068     -712.38665      35           
     37000  -11786.118      71.501171     -11857.619      0.72802911     219.85577      345.38313      296.30505      312.00783      256.51266     -1458.6525     -757.26527      32           
     38000  -11786.873      69.76263      -11856.636      0.72802911     214.51001      348.707        295.34481      291.88235      256.37086     -1487.5608     -772.27317      40           
     39000  -11787.981      69.618748     -11857.6        0.72802911     214.0676       333.81034      304.23412      277.16326      260.56486     -1142.6397     -593.20596      31           
     40000  -11788.083      70.488506     -11858.572      0.72802911     216.74198      325.97519      290.65936      306.20035      266.74964     -1478.8813     -767.76717      36           
     41000  -11784.782      70.994317     -11855.776      0.72802911     218.29727      439.9633       291.92712      302.65551      271.14198     -1336.7651     -693.98698      38           
     42000  -11784.321      73.612292     -11857.933      0.72802911     226.34717      317.53532      312.35401      307.28594      280.82618     -1514.3181     -786.16431      38           
     43000  -11786.174      71.914539     -11858.088      0.72802911     221.12682      301.0046       300.11385      308.19758      273.07388     -1036.5148     -538.11083      44           
     44000  -11786.672      71.571621     -11858.243      0.72802911     220.0724       334.65425      305.48532      294.80282      270.8221      -1375.7992     -714.25167      40           
     45000  -11787.825      70.319131     -11858.144      0.72802911     216.22117      341.02391      301.27576      286.85942      267.52583     -1340.0127     -695.67294      42           
     46000  -11785.589      71.499821     -11857.089      0.72802911     219.85162      285.78866      300.7239       303.38042      274.2178      -1384.1277     -718.57543      45           
     47000  -11786.682      71.480447     -11858.162      0.72802911     219.79205      288.26438      306.20504      294.67089      274.16317     -1349.7526     -700.72947      34           
     48000  -11783.142      72.37723      -11855.52  