
units                   metal #Changed from real to metal
dimension               3
boundary                p p f #changed from p p p to p p f
atom_style              full
#--------------------------------------------------------------------------------

# Variables
variable                Nsteps equal 100000
variable                dt equal 5.0
variable                seed equal 20000 #12345 # random number seed
#--------------------------------------------------------------------------------

# creating simulation box
read_data               data.Ti extra/bond/types 1 extra/bond/per/atom 2
Reading data file ...
  orthogonal box = (0 0 0) to (100 100 800)
  2 by 2 by 19 MPI processor grid
Finding 1-2 1-3 1-4 neighbors ...
  special bond factors lj:    0        0        0       
  special bond factors coul:  0        0        0       
     0 = max # of 1-2 neighbors
     0 = max # of 1-3 neighbors
     0 = max # of 1-4 neighbors
     1 = max # of special neighbors
  special bonds CPU = 0.001 seconds
  read_data CPU = 0.053 seconds

#change_box all z final 0 ${Lz} units box #for only change in Lz
change_box              all x final 0 ${Lx} y final 0 ${Ly} z final 0 ${Lz} units box #for change in Lz, Lx, and Ly
change_box              all x final 0 153.4 y final 0 ${Ly} z final 0 ${Lz} units box 
change_box              all x final 0 153.4 y final 0 153.4 z final 0 ${Lz} units box 
change_box              all x final 0 153.4 y final 0 153.4 z final 0 311.49240408616873 units box 
Changing box ...
  orthogonal box = (0 0 0) to (153.4 100 800)
  orthogonal box = (0 0 0) to (153.4 153.4 800)
  orthogonal box = (0 0 0) to (153.4 153.4 311.4924)

timestep                0.001

neighbor                1.5 bin
#-----------------------------------------------------------------------------------

#defining Ti region
group                   titanium type 1
0 atoms in group titanium

region                  Ti_zone block INF INF INF INF INF 16 units box
#changed from 8
region                  bottom block INF INF INF INF INF 4 units box #Ti bottom layer region

region                  middle block INF INF INF INF 4 8 units box #Ti middle layer

region                  upper block INF INF INF INF 8 16 units box #Ti upper layer region

#---------------------------------------------------------------------------------------------
#obseration regions
region                  obs_Ti block INF INF INF INF 8 16 units box #observation region - to observe temperature of moving Ti layer
#changed from 3 8

region                  obs block INF INF INF INF 16 19 units box #observation region - for physisorption effect
#changed from 8 11

region                  obs_O2 block INF INF INF INF 19 INF units box #observation region - for gas temperature
#changed from 11
#-------------------------------------------------------------------------------

#lennard-jones
pair_style              hybrid lj/cut 15.0 eam/fs #changed from 15 to 10

pair_coeff              * * eam/fs Ti1.eam.fs Ti NULL #Ti-Ti
pair_coeff              2 2 lj/cut 0.0044640704 3.00578 #O-O #taken from: file://ifs.eng.cam.ac.uk/users/lkm41/Downloads/Short-Time_Oxidation_Behavior_of_Low-Carbon_Low-Si.pdf
pair_coeff              1 2 lj/cut 0.0105961 2.60289 #Ti-O #mixing lennard jones potential

# O2 Bonds
bond_style              harmonic
bond_coeff              1 847.0 1.21

special_bonds           lj 0.0 0.0 1.0
Finding 1-2 1-3 1-4 neighbors ...
  special bond factors lj:    0        0        1       
  special bond factors coul:  0        0        0       
     0 = max # of 1-2 neighbors
     0 = max # of 1-3 neighbors
     0 = max # of 1-4 neighbors
     1 = max # of special neighbors
  special bonds CPU = 0.001 seconds

#creating atoms for Ti_zone
lattice                 hcp 2.95
Lattice spacing in x,y,z = 2.95 5.1095499 4.8173298
create_atoms            1 region Ti_zone
Created 22048 atoms
  using lattice units in orthogonal box = (0 0 0) to (153.4 153.4 311.4924)
  create_atoms CPU = 0.004 seconds

#---------------------------------------------------------------------------------------
#Ti_zone groups
group                   bottom region bottom
6292 atoms in group bottom
group                   middle region middle
6292 atoms in group middle
group                   upper region upper
9464 atoms in group upper
#-------------------------------------------------------------------------------------

#creating O2 molecules
molecule                O2 O2.txt #made from given file
Read molecule template O2:
# O2 molecule
  1 molecules
  0 fragments
  0 bodies
  2 atoms with max type 1
  1 bonds with max type 1
  0 angles with max type 0
  0 dihedrals with max type 0
  0 impropers with max type 0

region                  gas block INF INF INF INF 19.0 ${Lz_minus_one} units box #gas region above  Ti slab
region                  gas block INF INF INF INF 19.0 310.49240408616873 units box 


create_atoms            1 random ${N} ${seed} gas mol O2 ${seed} units box
create_atoms            1 random 884 ${seed} gas mol O2 ${seed} units box
create_atoms            1 random 884 20000 gas mol O2 ${seed} units box
create_atoms            1 random 884 20000 gas mol O2 20000 units box
Created 1768 atoms
  using box units in orthogonal box = (0 0 0) to (153.4 153.4 311.4924)
  create_atoms CPU = 0.001 seconds
group                   O2_zone region gas
1768 atoms in group O2_zone

group                   mobile subtract all bottom middle
11232 atoms in group mobile

fix                     freeze bottom setforce 0.0 0.0 0.0

fix                     balance all balance 5000 1.1 shift xyz 5 1.05

#obervation group for physisorption
group                   obs dynamic all region obs every 1000
dynamic group obs defined
#obervation group for titanium layer
group                   obs_Ti dynamic all region obs_Ti every 1000
dynamic group obs_Ti defined

#----------------------------------------------------------------------------------------------------------------------
#observation for pressure

variable                zhi equal ${Lz}
variable                zhi equal 311.49240408616873
variable                zlo equal ${Lz}-200
variable                zlo equal 311.49240408616873-200

region                  gas_obs_zone block INF INF INF INF ${zlo} ${zhi} units box
region                  gas_obs_zone block INF INF INF INF 111.492404086169 ${zhi} units box
region                  gas_obs_zone block INF INF INF INF 111.492404086169 311.492404086169 units box

group                   O2_in_obs_zone dynamic all region gas_obs_zone every 100
dynamic group O2_in_obs_zone defined

variable                O2_obs_zone_volume equal lx*ly*(${zhi}-${zlo})
variable                O2_obs_zone_volume equal lx*ly*(311.492404086169-${zlo})
variable                O2_obs_zone_volume equal lx*ly*(311.492404086169-111.492404086169)

compute                 O2_zone_temp O2_in_obs_zone temp

compute                 O2stress O2_in_obs_zone stress/atom O2_zone_temp
compute                 sum_stress O2_in_obs_zone reduce sum c_O2stress[1] c_O2stress[2] c_O2stress[3]
variable                O2pressure equal (-1)*(c_sum_stress[1]+c_sum_stress[2]+c_sum_stress[3])/(3*v_O2_obs_zone_volume)
#----------------------------------------------------------------------------------------------------------------------

#obervation group for O2
group                   obs_O2 dynamic O2_zone region obs_O2 every 1000
dynamic group obs_O2 defined
minimize                1e-6 1e-6 1000 10000 # shift atom locations to minimize the potential energy of the system. Helps if we accidentally introduce atoms that are overlapping and repel each other very strongly.
WARNING: Using a manybody potential with bonds/angles/dihedrals and special_bond exclusions (src/pair.cpp:251)
Neighbor list info ...
  update: every = 1 steps, delay = 0 steps, check = yes
  max neighbors/atom: 2000, page size: 100000
  master list distance cutoff = 16.5
  ghost atom cutoff = 16.5
  binsize = 8.25, bins = 19 19 38
  3 neighbor lists, perpetual/occasional/extra = 3 0 0
  (1) pair lj/cut, perpetual, skip from (3)
      attributes: half, newton on
      pair build: skip
      stencil: none
      bin: none
  (2) pair eam/fs, perpetual, skip from (3)
      attributes: half, newton on
      pair build: skip
      stencil: none
      bin: none
  (3) neighbor class addition, perpetual
      attributes: half, newton on
      pair build: half/bin/newton
      stencil: half/bin/3d
      bin: standard
Per MPI rank memory allocation (min/avg/max) = 16.3 | 22.47 | 24.64 Mbytes
   Step          Temp          E_pair         E_mol          TotEng         Press          Volume    
         0   0              5372432.4      6.738732       5372439.1      683490.51      7329902.2    
        22   0              1257216.3      0.24135062     1257216.5      169196.57      7329902.2    
Loop time of 0.290376 on 76 procs for 22 steps with 23816 atoms

99.4% CPU use with 76 MPI tasks x 1 OpenMP threads

Minimization stats:
  Stopping criterion = energy tolerance
  Energy initial, next-to-last, final = 
      5372439.10842893   1257217.27371004   1257216.49898021
  Force two-norm initial, final = 6873886.3 53.981652
  Force max component initial, final = 389195.85 17.730652
  Final line search alpha, max atom move = 0.0070955499 0.12580872
  Iterations, force evaluations = 22 28

MPI task timing breakdown:
Section |  min time  |  avg time  |  max time  |%varavg| %total
---------------------------------------------------------------
Pair    | 0.25894    | 0.26262    | 0.26305    |   0.2 | 90.44
Bond    | 4.826e-06  | 1.4392e-05 | 8.2478e-05 |   0.0 |  0.00
Neigh   | 0.017226   | 0.017672   | 0.017879   |   0.2 |  6.09
Comm    | 0.00082485 | 0.0018365  | 0.0083688  |   4.8 |  0.63
Output  | 0          | 0          | 0          |   0.0 |  0.00
Modify  | 2.519e-06  | 1.7704e-05 | 0.00027681 |   0.0 |  0.01
Other   |            | 0.008213   |            |       |  2.83

Nlocal:        313.368 ave        5574 max          10 min
Histogram: 72 0 0 0 0 0 0 0 0 4
Nghost:        1031.93 ave       11515 max          72 min
Histogram: 68 0 0 0 0 4 0 0 0 4
Neighs:              0 ave           0 max           0 min
Histogram: 76 0 0 0 0 0 0 0 0 0

Total # of neighbors = 0
Ave neighs/atom = 0
Ave special neighs/atom = 0.074235808
Neighbor list builds = 1
Dangerous builds = 0

velocity                all create ${T} ${seed} rot yes mom no
velocity                all create 300 ${seed} rot yes mom no
velocity                all create 300 20000 rot yes mom no
velocity                bottom set 0.0 0.0 0.
velocity                middle create ${T} ${seed} mom yes rot no dist gaussian
velocity                middle create 300 ${seed} mom yes rot no dist gaussian
velocity                middle create 300 20000 mom yes rot no dist gaussian

#variable                P equal ${P}
#fix                     integrator mobile npt temp ${T} ${T} 100 z 1.0 1.0 1000
#fix                     integrator mobile npt temp ${T} ${T} 100 x 1.0 1.0 1000 y 1.0 1.0 1000
#fix                      integrator mobile npt temp ${T} ${T} 100 x ${P} ${P} 1000 y ${P} ${P} 1000
fix                     integrator_O2 O2_zone nvt temp ${T} ${T} 100
fix                     integrator_O2 O2_zone nvt temp 300 ${T} 100
fix                     integrator_O2 O2_zone nvt temp 300 300 100

fix                     integrator_Ti upper nve
fix                     Ti_thermostat middle nvt temp ${T} ${T} 0.1
fix                     Ti_thermostat middle nvt temp 300 ${T} 0.1
fix                     Ti_thermostat middle nvt temp 300 300 0.1

fix                     zwalls all wall/reflect zlo EDGE zhi EDGE #reflective walls on the top and bottom surface to stop O2 molecules being lost

#----------------------------------------------------------------------------------------------------------------------

#count the number of atoms
variable                n_obs equal count(obs)

#measure the temperature of physisorption region
compute                 obsTemp obs temp

#measure temperature of Ti
compute                 obs_TiTemp obs_Ti temp

#measure temperature of O2
compute                 obs_O2Temp obs_O2 temp

#measure temperature of middle layer
compute                 T_middle middle temp

#____________________________________________________________________________________________________________________________

#outputs
thermo_style            custom step etotal ke pe density temp c_obsTemp c_obs_TiTemp c_T_middle c_obs_O2Temp press v_O2pressure v_n_obs # what to print
thermo                  1000 # print every 1000 timesteps

dump                    traj all custom 1000 dumps/dump_${T}_${P}.dump id type x y z vx vy vz
dump                    traj all custom 1000 dumps/dump_300_${P}.dump id type x y z vx vy vz
dump                    traj all custom 1000 dumps/dump_300_5.dump id type x y z vx vy vz

restart                 100000 restarts/restart.*

run                     5000000
WARNING: Using a manybody potential with bonds/angles/dihedrals and special_bond exclusions (src/pair.cpp:251)
Per MPI rank memory allocation (min/avg/max) = 16.45 | 20.76 | 22.68 Mbytes
   Step         TotEng         KinEng         PotEng        Density          Temp        c_obsTemp     c_obs_TiTemp    c_T_middle    c_obs_O2Temp      Press       v_O2pressure     v_n_obs    
        22   1257896.8      680.26054      1257216.5      0.24549523     220.98361      0              300.97525      300            298.413        169295.7      -23.765466      0            
      1000   1258071.6      669.14977      1257402.4      0.24549523     217.37426      505.0927       283.82178      318.4206       275.68556      169549.87     -11.441087      5            
      2000   1258088.9      667.64222      1257421.3      0.24549523     216.88453      469.75627      302.26142      292.68768      261.63653      170253.68      13.236176      8            
      3000   1258121        686.32936      1257434.7      0.24549523     222.95507      430.78504      316.66516      295.87089      254.90712      169164.44     -0.0069823197   10           
      4000   1258133.9      717.33289      1257416.6      0.24549523     233.02661      283.69         332.39567      309.30319      259.28683      169335.48     -1.9422705      15           
      5000   1258097.3      675.04649      1257422.2      0.24549523     219.28981      320.73866      298.22579      305.12363      271.4833       169929.23      16.397903      29           
      6000   1258097.9      688.63581      1257409.3      0.24549523     223.70432      324.82331      312.07434      296.65656      286.92349      169296.14     -16.791542      43           
      7000   1258101.7      685.0165       1257416.7      0.24549523     222.52859      376.99317      305.61431      298.70283      296.97797      169224.86      35.565944      49           
      8000   1258102.5      700.08288      1257402.4      0.24549523     227.42292      307.2344       313.63049      305.09618      298.87433      169708.28     -28.037502      49           
      9000   1258088.4      687.68301      1257400.7      0.24549523     223.39481      298.56684      312.47171      294.32633      289.50576      169571.36      41.013653      40           
     10000   1258099.5      677.89896      1257421.6      0.24549523     220.21644      328.51369      302.04664      301.57194      275.65376      169203.84     -28.814758      42           
     11000   1258101.8      698.34701      1257403.4      0.24549523     226.85902      340.29941      315.75065      309.19412      263.80943      169520.93      24.803255      49           
     12000   1258096.7      684.7746       1257411.9      0.24549523     222.45         348.62948      308.89028      303.91689      259.2018       169683.65     -1.8277719      58           
     13000   1258089        674.75123      1257414.2      0.24549523     219.1939       363.52225      304.59199      296.64835      263.96243      169223.64     -8.3824353      55           
     14000   1258086.9      680.19932      1257406.7      0.24549523     220.96372      312.84888      302.11486      304.51305      275.4654       169502.09      25.276007      43           
     15000   1258077.9      684.90056      1257393        0.24549523     222.49092      287.16503      305.22733      302.93687      285.6186       169586.72     -26.044571      38           
     16000   1258086.2      687.51064      1257398.7      0.24549523     223.33881      352.09567      306.26403      302.59799      291.47816      169458.35      43.131267      38           
     17000   1258083.9      688.47846      1257395.4      0.24549523     223.65321      339.89382      305.58721      305.28403      289.6814       169288.01     -39.056143      49           
     18000   1258088.2      684.85457      1257403.3      0.24549523     222.47598      304.79985      304.05621      305.10131      283.30443      169570.51      50.259805      52           
     19000   1258081        677.80837      1257403.2      0.24549523     220.18701      324.70052      305.41307      296.79577      273.85717      169519.5      -30.007834      56           
     20000   1258078.9      671.06139      1257407.9      0.24549523     217.99525      309.44498      301.87513      295.64189      267.52938      169311.86      32.56493       66           
     21000   1258085        673.33371      1257411.6      0.24549523     218.73341      273.37099      302.37776      298.26298      266.60577      169505.85     -15.168372      69           
     22000   1258080.4      671.98652      1257408.4      0.24549523     218.29578      260.66171      302.22241      295.75732      271.17136      169570.07      4.8930751      69           
     23000   1258077.9      681.16674      1257396.7      0.24549523     221.27799      295.5628       305.05554      300.3077       279.01842      169406.43      15.859269      68           
     24000   1258078.4      685.89658      1257392.5      0.24549523     222.81448      278.90128      305.40976      303.94494      285.30666      169409.89     -24.723519      66           
     25000   1258072.8      677.36753      1257395.4      0.24549523     220.04381      284.58501      303.67033      295.44912      287.78224      169548.7       45.870832      67           
     26000   1258074.1      678.33393      1257395.8      0.24549523     220.35774      275.4134       300.89575      301.57099      285.39429      169435.94     -37.491043      73           
     27000   1258078.6      681.35374      1257397.3      0.24549523     221.33873      251.70471      308.04261      296.32538      279.51394      169390.62      44.550989      69           
     28000   1258078.5      678.49892      1257400        0.24549523     220.41134      292.62113      299.38246      307.24853      272.69843      169491.98     -31.103476      79           
     29000   1258073.9      673.80695      1257400.1      0.24549523     218.88715      236.12373      300.36729      301.27376      270.42952      169519.38      27.302374      73           
     30000   1258085.3      678.65427      1257406.7      0.24549523     220.46181      254.61621      303.34301      302.20098      271.7163       169392.72     -13.068806      76           
     31000   1258074.8      677.98865      1257396.8      0.24549523     220.24558      250.7607       305.04117      297.48033      276.91417      169448.39      9.4295817      75           
     32000   1258076.8      677.48815      1257399.3      0.24549523     220.08299      242.97393      300.5643       302.12609      282.47551      169504.36      14.988602      71           
     33000   1258076.5      678.83699      1257397.7      0.24549523     220.52116      265.92569      303.62558      297.89489      286.38941      169407.88     -20.157762      73           
     34000   1258078.7      677.51804      1257401.2      0.24549523     220.0927       297.62667      301.93919      298.5624       286.07236      169497.03      39.957418      70           
     35000   1258084.8      690.04386      1257394.8      0.24549523     224.16173      331.72273      307.94117      305.49623      282.81349      169437.93     -26.625979      58           
     36000   1258072.9      679.76693      1257393.1      0.24549523     220.82326      347.0301       304.38526      299.15704      278.63272      169503.93      31.017538      66           
     37000   1258079.7      683.10942      1257396.6      0.24549523     221.90907      314.83801      306.03478      302.19558      274.4606       169393.61     -15.892867      74           
     38000   1258081.9      680.94425      1257401        0.24549523     221.20571      319.36426      301.87698      306.03728      273.52533      169472.06      8.0685806      76           
     39000   1258067.7      672.62583      1257395.1      0.24549523     218.50346      281.05383      299.70135      299.24951      274.3987       169479.39      10.075502      64           
     40000   1258065.1      672.30284      1257392.8      0.24549523     218.39853      256.68125      300.44971      296.57553      279.55249      169446.93     -17.463735      64           
     41000   1258068        669.21795      1257398.8      0.24549523     217.3964       196.2546       292.66452      303.8455       283.64539      169495.68      33.00228       53           
     42000   1258065.7      675.69959      1257390        0.24549523     219.50197      213.47478      300.33967      299.81904      285.07187      169428.68     -25.883674      63           
     43000   1258068.9      672.67894      1257396.2      0.24549523     218.52071      245.97528      297.93961      299.57137      284.67438      169491.26      34.622534      70           
     44000   1258064.4      669.15317      1257395.2      0.24549523     217.37536      257.86952      298.52858      294.75696      282.59376      169391.33     -23.02343       70           
     45000   1258075        675.89913      1257399.1      0.24549523     219.5668       296.88296      299.81188      301.22413      280.70686      169487.15      31.602629      72           
     46000   1258074.5      671.61699      1257402.9      0.24549523     218.17574      275.07429      300.00016      296.24209      279.31977      169427.15     -19.048513      71           
     47000   1258076.8      677.27449      1257399.6      0.24549523     220.01358      278.01428      305.05698      295.47029      279.97417      169427.77      21.037437      68           
     48000   1258082.2      682.7712       1257399.4      0.24549523     221.7992       320.24752      303.09775      304.22342      281.50378      169458.46     -5.234579       71           
     49000   1258066.8      670.70848      1257396.1      0.24549523     217.88061      355.9748       296.90396      297.44927      284.42785      169424.32      3.3158484      75           
     50000   1258068        674.81696      1257393.2      0.24549523     219.21525      314.69658      296.50278      303.06425      286.55752      169511.19      19.47402       69           
     51000   1258079.2      683.78504      1257395.4      0.24549523     222.12854      330.37561      303.53286      303.39428      286.38216      169389.58     -18.510328      75           
     52000   1258067.3      671.66189      1257395.7      0.24549523     218.19032      293.75774      297.29458      298.41959      285.93652      169477.07      31.648686      74           
     53000   1258063.8      672.67319      1257391.1      0.24549523     218.51884      307.06064      297.93419      298.83385      284.90266      169451.67     -22.230015      72           
     54000   1258065.7      673.44045      1257392.3      0.24549523     218.76809      288.62273      297.27876      300.93189      285.0365       169476.72      26.136846      78           
     55000   1258071        681.40582      1257389.6      0.24549523     221.35565      308.42051      300.09977      305.9962       285.88373      169427.41     -11.13075       83           
     56000   1258066.2      673.05313      1257393.2      0.24549523     218.64227      306.43809      299.56         296.31481      286.77313      169455.1       11.387144      86           
     57000   1258066.1      666.2394       1257399.8      0.24549523     216.42882      329.17415      293.2384       296.83784      288.01658      169473.5       3.5706647      85           
     58000   1258075.7      680.47754      1257395.2      0.24549523     221.0541       329.69417      300.12826      303.68401      288.89129      169416.16     -4.554213       90           
     59000   1258078.5      681.83347      1257396.6      0.24549523     221.49457      317.4612       299.93575      305.81014      288.85267      169460.93      20.366525      85           
     60000   1258079.8      679.79564      1257400        0.24549523     220.83258      256.46553      300.03762      303.93167      289.09759      169456.66     -19.157327      84           
     61000   1258065.5      674.34198      1257391.1      0.24549523     219.06095      284.59056      301.40914      295.09628      287.94621      169458.73      35.250538      79           
     62000   1258072.1      673.20487      1257398.9      0.24549523     218.69156      285.20129      300.51387      295.10776      287.68699      169410.3      -25.108044      82           
     63000   1258081.6      674.35705      1257407.2      0.24549523     219.06585      329.83922      295.62241      303.13589      288.10415      169504.37      28.802173      85           
     64000   1258079.6      675.12979      1257404.5      0.24549523     219.31687      285.12877      299.90734      297.99263      289.16866      169441.96     -14.274166      84           
     65000   1258075.2      673.44143      1257401.8      0.24549523     218.76841      292.71432      301.13797      293.53994      290.74997      169439.33      14.204242      91           
     66000   1258076.6      679.51973      1257397.1      0.24549523     220.74295      315.18158      301.55416      299.89982      291.26114      169484.19      5.8331653      87           
     67000   1258075.1      675.50463      1257399.6      0.24549523     219.43864      288.59754      301.96255      294.52566      292.00441      169435.12     -6.2049937      77           
     68000   1258072.4      675.54076      1257396.9      0.24549523     219.45038      250.44996      301.95433      295.48485      290.30228      169461.13      26.371293      83           
     69000   1258072.5      680.57485      1257391.9      0.24549523     221.08571      262.75906      299.85663      304.55464      290.97699      169419.82     -19.317155      85           
     70000   1258079.4      675.83935      1257403.5      0.24549523     219.54738      288.87973      300.9156       296.94735      290.50467      169468.87      24.742688      106          
     71000   1258078.2      677.43896      1257400.8      0.24549523     220.06701      298.7363       300.42522      299.52492      290.24651      169434.75     -9.8322702      96           
     72000   1258075.9      673.09591      1257402.8      0.24549523     218.65616      277.52648      296.66446      300.15069      290.35365      169458.78      10.569849      96           
     73000   1258075.6      679.99312      1257395.6      0.24549523     220.89673      299.89181      302.64626      298.91497      291.48654      169448.16      4.3090285      97           
     74000   1258066.5      670.28287      1257396.2      0.24549523     217.74235      321.18872      294.11506      299.81529      290.36432      169460.38      3.0140065      113          
     75000   1258073.8      675.54949      1257398.3      0.24549523     219.45321      298.22747      299.74764      298.34032      289.82308      169424.44      8.936505       103          
     76000   1258072.5      672.01248      1257400.5      0.24549523     218.30421      275.22779      296.37368      299.14117      291.12407      169456.4       1.2381993      104          
     77000   1258071.2      673.57287      1257397.6      0.24549523     218.81111      258.71122      298.922        297.76428      289.81947      169477.32      8.8704718      90           
     78000   1258079.7      678.97738      1257400.8      0.24549523     220.56677      279.49386      300.39271      301.6276       290.89506      169434.07     -0.67827004     93           
     79000   1258087.9      688.08441      1257399.8      0.24549523     223.5252       305.07191      304.19631      306.64787      291.11702      169451.27      12.413027      101          
     80000   1258071        676.87788      1257394.1      0.24549523     219.88474      296.28083      299.31657      299.90625      292.84116      169468.49     -5.1587711      108          
     81000   1258075.6      678.15971      1257397.4      0.24549523     220.30115      267.57663      297.56712      304.46419      293.12732      169426.75      10.790882      97           
     82000   1258077.8      679.08458      1257398.8      0.24549523     220.60159      270.49205      299.07091      303.22751      293.40913      169432.53     -2.6438908      99           
     83000   1258076.4      682.27635      1257394.1      0.24549523     221.63844      335.52123      302.444        301.38709      292.02078      169466.14      12.944906      106          
     84000   1258074.7      678.08898      1257396.6      0.24549523     220.27817      330.96421      301.67908      297.74329      290.95797      169473.57      0.19348505     106          
     85000   1258069.7      676.30463      1257393.4      0.24549523     219.69852      280.20287      298.51833      301.2456       290.53006      169434.04      3.5248678      95           
     86000   1258074.2      679.81181      1257394.3      0.24549523     220.83784      285.63527      301.37162      301.37993      289.81316      169443.23      8.4539439      101          
     87000   1258076.2      677.50144      1257398.7      0.24549523     220.08731      307.84859      300.31274      299.46211      290.98291      169468.22     -4.5460643      104          
     88000   1258072.7      674.60875      1257398.1      0.24549523     219.14761      325.09597      301.28118      294.00422      291.45717      169434.46      18.803341      109          
     89000   1258065.9      669.96985      1257395.9      0.24549523     217.64066      311.4516       298.64841      292.16939      292.66184      169424.2      -11.84163       111          
     90000   1258072.7      678.35306      1257394.4      0.24549523     220.36396      291.94886      300.81321      299.66122      292.73295      169484.75      21.261873      100          
     91000   1258078.4      687.02131      1257391.4      0.24549523     223.17985      263.37471      304.54117      304.98365      292.92779      169422.78     -15.697647      96           
     92000   1258073        676.60149      1257396.4      0.24549523     219.79496      283.65271      301.91352      295.72771      293.26166      169440.74      24.257006      97           
     93000   1258082.7      685.51028      1257397.2      0.24549523     222.68899      263.95546      307.13627      299.55029      291.65836      169449.83     -17.087612      96           
     94000   1258076.5      681.93299      1257394.5      0.24549523     221.5269       297.91221      305.2657       297.74637      290.78308      169441.53      23.02396       102          
     95000   1258076.3      675.37248      1257400.9      0.24549523     219.39571      292.28306      301.45291      295.20284      291.66301      169447.92     -13.472212      101          
     96000   1258074.1      675.51168      1257398.6      0.24549523     219.44093      291.22921      297.09279      301.70303      292.59221      169462.98      14.597239      100          
     97000   1258076.8      682.96311      1257393.9      0.24549523     221.86154      308.83585      305.18488      298.19878      293.41617      169444.77     -3.7585892      100          
     98000   1258079.7      684.24233      1257395.4      0.24549523     222.27709      257.99492      301.6486       305.27981      295.90569      169445.47      6.6394646      108          
     99000   1258069        676.19889      1257392.8      0.24549523     219.66417      260.27594      297.99166      301.00367      295.47316      169459.56      3.5578907      115          
    100000   1258075        675.00922      1257400        0.24549523     219.27771      276.65789      297.98915      299.59969      294.09851      169469.76     -0.70427641     111          
    101000   1258076.8      679.40549      1257397.4      0.24549523     220.70584      290.57616      297.9467       305.34329      292.37596      169456.91      12.334374      113          
    102000   1258071.1      672.31165      1257398.8      0.24549523     218.4014       275.3475       296.25398      299.84348      290.78123      169438.34     -9.5731204      115          
    103000   1258064.9      674.30528      1257390.6      0.24549523     219.04903      295.82733      297.3158       300.19577      291.10203      169475.62      23.545446      113          
    104000   1258066.5      676.39407      1257390.2      0.24549523     219.72758      315.69744      296.71733      303.11355      291.8132       169432.41     -15.595231      116          
    105000   1258074.8      679.58742      1257395.2      0.24549523     220.76494      299.30603      299.65583      302.28018      294.24534      169465.82      25.632884      118          
    106000   1258077.4      680.23016      1257397.2      0.24549523     220.97374      295.88689      299.44481      302.98507      296.02585      169432.43     -15.175341      126          
    107000   1258074.2      679.09735      1257395.1      0.24549523     220.60574      283.90401      300.46966      300.27989      295.97057      169476.25      23.24804       114          
    108000   1258068.3      676.10801      1257392.2      0.24549523     219.63465      273.23161      299.97314      297.81928      294.92969      169430.03     -10.117168      115          
    109000   1258080.1      678.32038      1257401.7      0.24549523     220.35334      284.20648      295.36068      307.68647      293.42333      169449.9       15.609568      123          
    110000   1258070.8      676.62217      1257394.2      0.24549523     219.80167      242.7116       298.32533      301.71529      294.32736      169431.94     -3.3487784      124          
    111000   1258067        679.3306       1257387.7      0.24549523     220.68151      263.64004      300.02475      302.72366      291.74497      169436.91      3.4218733      117          
    112000   1258071.3      676.56207      1257394.8      0.24549523     219.78215      272.96764      301.11133      297.48589      291.75585      169467.22      16.950143      109          
    113000   1258062.6      672.22241      1257390.4      0.24549523     218.37241      262.10913      297.72341      297.02553      293.26121      169461        -18.416823      112          
    114000   1258065.9      676.09318      1257389.9      0.24549523     219.62983      296.37117      300.13865      297.05394      295.22575      169457.75      37.624505      121          
    115000   1258072.8      680.17411      1257392.6      0.24549523     220.95553      305.76466      302.61949      297.84143      296.49435      169449.15     -31.525794      113          
    116000   1258079.9      681.17177      1257398.7      0.24549523     221.27962      290.90092      299.83499      302.87907      298.89873      169464.06      35.320388      105          
    117000   1258076.7      681.46761      1257395.2      0.24549523     221.37572      267.87285      301.99699      300.16805      299.76465      169450.04     -15.014052      110          
    118000   1258066.7      672.43214      1257394.2      0.24549523     218.44054      281.22175      297.53072      296.08981      297.65752      169476.61      12.816327      118          
    119000   1258057.8      669.04054      1257388.8      0.24549523     217.33877      280.847        295.98704      294.51257      296.75192      169439.46     -0.43016694     117          
    120000   1258082.7      678.72622      1257403.9      0.24549523     220.48518      279.53312      298.5666       303.06722      294.98275      169477.75      0.98026869     112          
    121000   1258073.9      679.66127      1257394.2      0.24549523     220.78893      308.46418      303.18194      296.68648      294.89921      169444.1       12.30602       121          
    122000   1258079.2      684.08365      1257395.2      0.24549523     222.22555      309.10545      304.54328      299.80211      296.12176      169473.28     -11.109417      109          
    123000   1258090.3      686.70596      1257403.6      0.24549523     223.07741      261.7315       301.90105      307.07867      298.78031      169465.55      24.660723      103          
    124000   1258074.6      679.54101      1257395.1      0.24549523     220.74986      255.06397      301.84088      298.44398      298.57327      169419.06     -17.734979      94           
    125000   1258076.2      678.68639      1257397.5      0.24549523     220.47224      249.66563      300.73225      298.87084      299.58519      169454.98      32.583085      92           
    126000   1258094.2      687.18516      1257407.1      0.24549523     223.23308      244.90935      303.18416      305.94765      298.82402      169461.82     -18.384346      97           
    127000   1258079.8      683.86805      1257395.9      0.24549523     222.15551      252.39004      299.463        307.36866      298.70471      169457.62      16.70217       95           
    128000   1258080.8      681.01695      1257399.8      0.24549523     221.22932      256.46864      303.95562      297.25501      298.034        169457.74      4.2544042      100          
    129000   1258072.8      675.36709      1257397.4      0.24549523     219.39396      244.90752      296.94864      301.2066       297.35601      169474.92     -10.455389      103          
    130000   1258071.3      681.21247      1257390.1      0.24549523     221.29284      284.71309      302.7991       299.13147      296.85042      169457.42      20.65999       99           
    131000   1258080.6      680.1331       1257400.4      0.24549523     220.94221      256.70763      296.58972      307.20268      297.772        169404.04     -21.276753      83           
    132000   1258071.6      681.12841      1257390.5      0.24549523     221.26553      295.9419       300.93435      301.05832      298.97736      169482.54      34.183146      85           
    133000   1258081.9      682.02151      1257399.9      0.24549523     221.55566      279.52406      301.62525      301.34385      298.91549      169428.67     -25.964239      82           
    134000   1258075.7      681.31601      1257394.4      0.24549523     221.32648      290.4102       297.47795      306.45728      299.38522      169479.96      29.704348      88           
    135000   1258073.8      676.07981      1257397.7      0.24549523     219.62549      273.15724      301.49949      294.17435      299.5563       169407.31     -17.299389      91           
    136000   1258074.8      680.44581      1257394.3      0.24549523     221.04379      255.95989      299.60473      302.95463      298.15111      169487.19      16.612501      88           
    137000   1258073.5      674.15682      1257399.3      0.24549523     219.0008       276.82594      296.91292      299.2858       297.09723      169423.94      1.7369652      89           
    138000   1258082.3      680.59708      1257401.7      0.24549523     221.09293      270.77558      300.39702      301.91408      297.59065      169471.01     -3.0566983      84           
    139000   1258074.3      671.54669      1257402.7      0.24549523     218.1529       284.62055      297.00206      296.04253      296.29252      169472.49      19.729714      76           
    140000   1258073        680.01017      1257393        0.24549523     220.90227      285.14089      300.92504      300.79308      295.38744      169450.36     -24.430003      80           
    141000   1258065.1      671.74279      1257393.4      0.24549523     218.2166       290.49791      299.29193      292.97011      295.55991      169450.97      42.053471      81           
    142000   1258072.6      678.89589      1257393.7      0.24549523     220.5403       331.40855      297.8072       303.3885       295.68845      169424.71     -34.707121      91           
    143000   1258070.5      678.8306       1257391.7      0.24549523     220.51909      311.15778      299.58409      301.02738      295.29463      169456.11      38.746701      88           
    144000   1258080.7      683.47635      1257397.2      0.24549523     222.02826      314.85676      302.71014      301.38007      297.50695      169415.24     -18.144773      98           
    145000   1258075.2      675.1071       1257400.1      0.24549523     219.3095       314.17516      297.01785      299.84576      296.84876      169459.49      15.23785       94           
    146000   1258074.9      675.37662      1257399.6      0.24549523     219.39706      317.0584       299.17837      296.78321      297.08583      169457.17      11.217476      106          
    147000   1258080.2      682.9912       1257397.2      0.24549523     221.87066      274.89079      300.82186      304.31135      297.01604      169427.64     -17.25051       91           
    148000   1258069.3      674.02894      1257395.2      0.24549523     218.95926      274.9984       299.37107      295.27732      297.94548      169483.21      41.922373      100          
    149000   1258075.4      681.99234      1257393.4      0.24549523     221.54618      292.38173      302.10945      300.76059      297.81651      169410.97     -48.250311      105          
    150000   1258066.6      667.73832      1257398.8      0.24549523     216.91574      276.82114      295.15695      293.79762      298.17002      169474.86      63.610743      98           
    151000   1258070.3      675.73912      1257394.5      0.24549523     219.51482      264.04141      296.26066      302.52565      296.92155      169427.6      -49.966365      102          
    152000   1258072.6      680.4513       1257392.2      0.24549523     221.04558      272.02495      299.4798       303.52619      296.25544      169493.25      55.875404      102          
    153000   1258068.7      675.04954      1257393.6      0.24549523     219.2908       280.11416      297.52974      299.74807      296.02461      169414.53     -34.117344      102          
    154000   1258063        669.93291      1257393.1      0.24549523     217.62866      294.36703      296.3326       295.49889      294.24365      169464.39      23.392746      109          
    155000   1258081.4      680.35739      1257401.1      0.24549523     221.01507      282.05289      300.44299      302.49132      293.62588      169465.16      5.8921342      99           
    156000   1258071.8      672.96817      1257398.8      0.24549523     218.61467      273.38528      294.82826      302.09847      293.17488      169444.83     -9.6876732      97           
    157000   1258065.1      675.18936      1257389.9      0.24549523     219.33623      258.92076      297.65306      300.58364      293.93307      169418.53      28.765418      94           
    158000   1258072.7      676.236        1257396.4      0.24549523     219.67623      270.45078      301.31984      296.29005      293.79111      169436.5      -37.467843      91           
    159000   1258080.2      680.21061      1257400        0.24549523     220.96739      277.92057      300.20251      302.38061      294.91863      169465.07      48.838929      94           
    160000   1258069        674.09309      1257394.9      0.24549523     218.9801       300.44848      296.54237      300.4827       293.22579      169403.45     -46.623477      92           
    161000   1258075.6      681.16913      1257394.4      0.24549523     221.27876      319.55449      300.82927      302.61059      292.81985      169471.79      52.746726      96           
    162000   1258077        680.78744      1257396.2      0.24549523     221.15477      241.67067      302.88554      300.16441      292.27823      169414.13     -41.555581      82           
    163000   1258074.3      673.45085      1257400.8      0.24549523     218.77147      267.17938      299.35927      296.10142      292.38494      169500.12      34.373983      81           
    164000   1258074        673.32054      1257400.7      0.24549523     218.72914      269.10902      295.8036       300.92198      293.72368      169374.72     -19.256464      81           
    165000   1258081        680.08517      1257401        0.24549523     220.92664      279.96056      302.15854      298.78321      296.57285      169511.89      15.880549      82           
    166000   1258075.8      680.80508      1257395        0.24549523     221.1605       307.78069      302.48786      299.06104      295.60014      169447.12      3.9625075      89           
    167000   1258078.5      676.31004      1257402.2      0.24549523     219.70028      295.41906      303.77379      291.47548      296.70751      169406.59     -8.8901365      84           
    168000   1258072.1      675.09296      1257397.1      0.24549523     219.30491      315.82692      299.48081      296.5148       295.29122      169492.2       25.461482      82           
    169000   1258078.1      678.72942      1257399.4      0.24549523     220.48622      301.85976      303.84734      295.05378      293.71014      169452.57     -22.723911      86           
    170000   1258066.6      669.5145       1257397        0.24549523     217.49274      265.1235       295.86868      296.60851      292.16087      169478.19      33.344517      80           
    171000   1258082.3      680.16522      1257402.1      0.24549523     220.95264      264.3549       301.17754      301.60303      292.4617       169396.38     -23.005401      75           
    172000   1258071.3      674.52909      1257396.8      0.24549523     219.12173      285.39957      300.49162      295.30243      293.18843      169485.37      29.881573      72           
    173000   1258077.9      678.47975      1257399.4      0.24549523     220.40511      283.71352      302.11019      297.27741      295.25352      169438.6      -8.9377271      78           
    174000   1258074.8      678.93637      1257395.9      0.24549523     220.55345      302.51746      301.66524      297.80667      296.64053      169429.07      6.4407457      78           
    175000   1258069.2      674.7127       1257394.5      0.24549523     219.18138      346.87536      297.01853      298.78841      297.39156      169473.86      11.081225      88           
    176000   1258070.4      671.89991      1257398.5      0.24549523     218.26764      338.29551      295.42688      298.17373      296.26494      169431.99     -14.520436      82           
    177000   1258073.3      677.13089      1257396.1      0.24549523     219.96693      322.44108      301.05149      296.33622      296.22132      169464.37      24.36712       83           
    178000   1258075.9      674.97791      1257400.9      0.24549523     219.26754      281.03321      300.31055      295.70487      294.85025      169437.01     -19.742854      71           
    179000   1258078.7      680.31281      1257398.4      0.24549523     221.00059      285.20466      301.59603      300.58702      293.77182      169514.65      23.259121      79           
    180000   1258092.2      688.8674       1257403.4      0.24549523     223.77955      273.5705       307.15298      303.03603      293.09396      169427.68     -8.3372103      78           
    181000   1258085.4      681.9259       1257403.5      0.24549523     221.5246       293.97783      302.57348      301.07116      293.42356      169469.74      8.0357117      83           
    182000   1258076.9      678.68067      1257398.2      0.24549523     220.47038      320.65492      300.73252      298.95375      295.52172      169450.64     -0.46161846     83           
    183000   1258086.7      679.66396      1257407        0.24549523     220.78981      290.08149      300.10572      300.46994      299.39132      169471.31      8.30032        84           
    184000   1258078.9      676.67824      1257402.2      0.24549523     219.81989      237.22536      298.33476      300.04131      300.1698       169448.39      3.2737884      93           
    185000   1258069.3      673.52198      1257395.7      0.24549523     218.79457      235.66432      296.74894      298.80894      299.46144      169451.37     -1.2150514      91           
    186000   1258064.5      674.88802      1257389.7      0.24549523     219.23834      262.89308      297.29061      299.45376      298.57489      169473.57      13.909135      92           
    187000   1258075        676.86433      1257398.1      0.24549523     219.88034      279.17288      298.72288      300.11755      296.2717       169436.8      -11.676463      93           
    188000   1258073.8      673.66602      1257400.1      0.24549523     218.84137      246.23141      297.60376      298.78033      294.59621      169460.18      22.565923      92           
    189000   1258080.9      681.70379      1257399.2      0.24549523     221.45245      279.31757      303.4386       299.70263      293.34856      169415.5      -16.43901       96           
    190000   1258075        683.03732      1257392        0.24549523     221.88565      298.63509      302.10657      302.90682      294.07898      169472.9       17.775121      98           
    191000   1258076.8      678.84785      1257397.9      0.24549523     220.52469      299.50577      301.60402      297.95626      295.97264      169439.89     -3.4622525      93           
    192000   1258076.4      678.59848      1257397.8      0.24549523     220.44368      310.51419      299.00947      300.93934      297.74424      169470.54      3.201058       104          
    193000   1258075.3      681.13542      1257394.2      0.24549523     221.26781      322.32147      299.53036      303.18052      297.34179      169432.09      7.5567486      106          
    194000   1258068.9      678.70451      1257390.2      0.24549523     220.47813      277.43702      298.22787      303.05155      296.71937      169477.85     -4.5916695      102          
    195000   1258081.4      677.03851      1257404.3      0.24549523     219.93693      286.28494      300.20279      298.18957      295.58772      169443.64      20.521824      102          
    196000   1258081.3      687.24234      1257394        0.24549523     223.25165      286.71654      305.87865      302.70996      293.51398      169429.12     -7.800754       103          
    197000   1258081.8      679.95212      1257401.8      0.24549523     220.88342      319.64665      305.07795      295.35332      289.85995      169476.94      17.555347      116          
    198000   1258072.7      680.84935      1257391.8      0.24549523     221.17488      298.65433      302.67021      300.29381      290.57819      169455.48     -4.5964714      113          
    199000   1258081.4      680.12164      1257401.3      0.24549523     220.93848      310.50892      300.61665      301.78518      292.57898      169431.6       6.6855006      108          
    200000   1258076.2      678.70087      1257397.5      0.24549523     220.47694      294.58266      301.26881      298.95973      293.84152      169451.81      5.7742916      108          
    201000   1258077.4      679.64705      1257397.7      0.24549523     220.78431      305.84977      300.30503      301.12458      294.87276      169467.46     -0.34619831     102          
    202000   1258082.9      680.36197      1257402.6      0.24549523     221.01655      304.18031      301.52191      299.95781      295.70218      169429.57      13.093199      101          
    203000   1258076.7      679.41851      1257397.2      0.24549523     220.71007      304.85081      300.46256      300.81581      294.12979      169459.76     -1.290488       100          
    204000   1258081.6      677.76686      1257403.8      0.24549523     220.17353      300.99849      297.86672      303.25166      292.24045      169462.59      6.1013804      100          
    205000   1258063.7      669.43528      1257394.3      0.24549523     217.467        263.89609      297.93272      293.30876      292.88717      169453.67      6.8624831      99           
    206000   1258073.9      680.91413      1257393        0.24549523     221.19593      299.82947      299.53254      304.61424      292.32196      169400.87     -3.9176737      99           
    207000   1258074.4      678.86998      1257395.6      0.24549523     220.53188      316.51685      300.2376       300.49798      293.25995      169465.16      11.36115       108          
    208000   1258077.3      678.14735      1257399.2      0.24549523     220.29713      300.9507       301.03521      298.59612      293.58752      169484.47     -5.3798569      101          
    209000   1258074.8      675.03558      1257399.8      0.24549523     219.28627      291.45047      298.34981      298.4572       295.9429       169487.17      7.2463593      102          
    210000   1258069.2      678.84164      1257390.4      0.24549523     220.52267      287.84285      299.06577      301.4745       297.86171      169435.06      5.7706559      92           
    211000   1258079.5      678.45364      1257401        0.24549523     220.39663      245.21787      299.87105      299.88247      299.78268      169458.01      5.0788015      91           
    212000   1258083.7      682.02007      1257401.7      0.24549523     221.55519      307.6718       301.17619      301.80625      298.26766      169453.56      4.3383852      97           
    213000   1258077.9      677.08378      1257400.8      0.24549523     219.95163      311.78028      298.10663      300.81826      296.19419      169436.08     -0.015658035    105          
    214000   1258072.8      677.28681      1257395.5      0.24549523     220.01758      303.72691      298.71525      300.5119       295.37814      169433.61      18.53159       99           
    215000   1258085.6      681.9562       1257403.6      0.24549523     221.53444      303.64552      301.73182      301.69575      295.45071      169468.64     -13.396426      96           
    216000   1258071.2      670.74996      1257400.4      0.24549523     217.89408      278.73818      296.52018      296.09649      295.55349      169465.23      28.534716      91           
    217000   1258073.8      676.4615       1257397.4      0.24549523     219.74948      293.84598      297.92994      300.75261      295.67383      169459.94     -26.899885      95           
    218000   1258077.2      682.52222      1257394.7      0.24549523     221.71832      281.71099      301.07506      303.1547       297.54168      169436.69      32.315827      93           
    219000   1258071.8      676.62824      1257395.2      0.24549523     219.80365      266.19107      298.6727       299.59688      298.12575      169459.95     -22.178614      94           
    220000   1258072        675.30111      1257396.7      0.24549523     219.37253      258.61645      297.49545      299.69124      298.71393      169475.65      22.067375      94           
    221000   1258074.6      682.0152       1257392.5      0.24549523     221.55361      231.45622      302.65376      300.37156      299.61753      169414.16      0.93567578     96           
    222000   1258076.1      676.80308      1257399.3      0.24549523     219.86044      240.29822      296.58222      303.16007      298.94221      169470.64     -8.898823       95           
    223000   1258072.8      672.9343       1257399.9      0.24549523     218.60367      218.74965      298.32462      296.18118      297.97371      169447.17      26.60512       91           
    224000   1258080.8      682.61776      1257398.2      0.24549523     221.74935      245.88486      301.22273      303.86823      297.12172      169452.86     -26.00836       93           
    225000   1258088.6      684.4191       1257404.2      0.24549523     222.33452      287.30085      302.05417      304.51022      295.31334      169451.71      32.708963      92           
    226000   1258069.5      676.1955       1257393.3      0.24549523     219.66307      270.89057      301.75343      294.97867      296.17171      169431.55     -24.386585      93           
    227000   1258071.2      676.68839      1257394.6      0.24549523     219.82319      245.63068      298.0603       301.09747      297.14003      169461.93      30.25427       89           
    228000   1258077.5      678.72737      1257398.8      0.24549523     220.48555      276.27664      300.69705      298.94478      298.2853       169414.74     -12.771313      87           
    229000   1258079.7      680.87507      1257398.8      0.24549523     221.18324      251.11763      302.44298      299.13846      298.87112      169470.64      14.50296       94           
    230000   1258067.8      676.9781       1257390.8      0.24549523     219.9173       261.4169       297.26984      301.82063      299.68805      169438.36     -4.9760737      96           
    231000   1258080.8      682.56605      1257398.3      0.24549523     221.73255      238.70158      300.00767      304.96836      299.32556      169458.88      9.507075       93           
    232000   1258085.5      685.3717       1257400.1      0.24549523     222.64397      248.5224       304.10034      302.22603      299.06844      169460.02      4.0598801      93           
    233000   1258071.4      672.61358      1257398.8      0.24549523     218.49948      309.89452      297.97418      294.59499      299.77204      169430.51      1.8311483      97           
    234000   1258074.4      673.15591      1257401.2      0.24549523     218.67566      273.47496      298.45207      295.02462      300.05692      169469.62      8.4307112      97           
    235000   1258078.9      677.88838      1257401        0.24549523     220.21301      334.92464      299.15596      298.87737      299.88045      169442.83     -3.6387157      101          
    236000   1258080.5      681.46052      1257399        0.24549523     221.37342      285.88376      301.78369      299.86016      300.80677      169491.43      14.417661      89           
    237000   1258076.5      681.45387      1257395.1      0.24549523     221.37126      243.08299      301.60931      300.24688      302.38698      169443.92     -9.1851759      86           
    238000   1258073.7      676.38847      1257397.3      0.24549523     219.72576      264.70787      298.95169      297.7345       302.25521      169448.46      21.203183      82           
    239000   1258087.3      683.91541      1257403.4      0.24549523     222.1709       299.84396      300.355        304.88265      300.55659      169453.88     -8.1934991      84           
    240000   1258074.5      676.90229      1257397.6      0.24549523     219.89267      293.62988      298.52355      299.21708      300.13267      169455.65      12.181509      92           
    241000   1258079.3      677.586        1257401.7      0.24549523     220.11478      290.51256      299.37929      299.00065      299.48011      169436.55      6.2393257      100          
    242000   1258071.4      677.60506      1257393.8      0.24549523     220.12097      263.70321      298.39554      300.75512      300.29968      169443.37     -7.5231643      108          
    243000   1258088.1      685.9252       1257402.2      0.24549523     222.82378      298.20925      300.03086      307.65622      301.38548      169459.94      22.779449      113          
    244000   1258075.6      682.64853      1257392.9      0.24549523     221.75935      315.8202       300.77719      301.97116      302.10279      169422.62     -25.533924      117          
    245000   1258080        684.75329      1257395.2      0.24549523     222.44308      313.48107      301.02932      304.12763      302.54539      169461.83      39.053019      118          
    246000   1258070.6      672.21038      1257398.4      0.24549523     218.3685       271.63946      295.92589      296.78951      303.70141      169436.88     -32.570514      111          
    247000   1258072.3      675.4885       1257396.8      0.24549523     219.4334       292.96371      298.8716       296.20906      303.09028      169482.25      37.959905      112          
    248000   1258071.3      675.16993      1257396.1      0.24549523     219.32991      272.8879       299.61026      295.09366      303.01659      169415.24     -23.533452      120          
    249000   1258085.3      686.29377      1257399        0.24549523     222.94351      273.63753      304.4903       301.74677      301.84918      169466.79      23.490364      123          
    250000   1258072.7      679.40787      1257393.3      0.24549523     220.70661      281.13873      298.83944      301.89337      300.92462      169453.33     -2.3278647      124          
    251000   1258070.1      673.97661      1257396.1      0.24549523     218.94226      285.3274       298.27412      296.52327      298.8222       169435.05      1.4304359      120          
    252000   1258083.8      678.36586      1257405.4      0.24549523     220.36812      271.42291      298.16289      302.29536      298.78216      169460.94      20.789558      114          
    253000   1258074.9      678.83426      1257396.1      0.24549523     220.52028      272.97431      300.02609      299.62013      300.27753      169435.94     -26.283464      114          
    254000   1258079.4      679.80004      1257399.6      0.24549523     220.83401      302.0441       300.15226      299.97241      300.94335      169498.79      48.164322      116          
    255000   1258090.7      687.09733      1257403.6      0.24549523     223.20455      298.5685       304.525        302.00804      302.63395      169397.08     -47.13839       121          
    256000   1258075.6      682.39234      1257393.2      0.24549523     221.67612      279.58718      301.64812      300.72372      303.21322      169514.19      57.730652      116          
    257000   1258081.4      681.68019      1257399.7      0.24549523     221.44478      274.91925      299.83077      302.73211      302.92999      169416.32     -48.660261      110          
    258000   1258075.2      676.80291      1257398.4      0.24549523     219.86039      269.79759      298.63255      299.14667      300.85814      169476.77      42.516141      105          
    259000   1258074        678.67913      1257395.3      0.24549523     220.46988      274.17984      304.84116      292.42223      299.35906      169455.78     -18.832771      110          
    260000   1258075.4      675.19414      1257400.2      0.24549523     219.33778      276.97478      297.39335      299.4907       298.86867      169424.92      12.792848      115          
    261000   1258070.4      678.67674      1257391.7      0.24549523     220.46911      297.99372      302.38774      295.73994      299.71646      169497.2       8.5958116      113          
    262000   1258080.7      679.09536      1257401.6      0.24549523     220.6051       291.39999      300.06036      299.55748      300.46999      169411.37     -14.110085      101          
    263000   1258075.7      679.81401      1257395.9      0.24549523     220.83855      253.74139      300.65212      299.24956      303.67693      169492.94      34.595613      96           
    264000   1258073.7      675.44883      1257398.3      0.24549523     219.42051      278.77967      299.47311      295.30835      303.58577      169401.09     -37.406561      95           
    265000   1258086.4      678.24923      1257408.1      0.24549523     220.33023      271.53844      296.16938      304.15227      302.06224      169482.16      53.621115      78           
    266000   1258075.3      678.28289      1257397        0.24549523     220.34116      260.06885      302.07178      296.01359      300.16128      169451.17     -45.426056      75           
    267000   1258073.8      673.28083      1257400.5      0.24549523     218.71624      254.82704      297.81825      296.4588       299.59039      169456.04      49.578311      82           
    268000   1258079.1      678.46965      1257400.6      0.24549523     220.40183      264.5408       301.33211      297.68467      298.6361       169456.6      -33.25349       82           
    269000   1258082.2      677.38046      1257404.8      0.24549523     220.04801      331.64286      297.58784      301.08855      298.55229      169458         28.561795      91           
    270000   1258079.2      680.69849      1257398.5      0.24549523     221.12587      309.44584      301.12513      299.48226      301.02657      169461.65     -4.198816       91           
    271000   1258068.4      674.1026       1257394.3      0.24549523     218.98319      301.97364      298.45778      295.02899      302.84724      169427.87     -3.7450981      89           
    272000   1258077.6      682.51657      1257395.1      0.24549523     221.71648      268.33789      303.06025      298.47893      304.26301      169470.76      23.644103      77           
    273000   1258068.5      671.16276      1257397.3      0.24549523     218.02818      278.20405      296.4573       294.38246      304.11093      169412.76     -29.575156      80           
    274000   1258077.4      676.73022      1257400.7      0.24549523     219.83677      298.13748      299.75742      296.39519      302.69535      169481.4       48.782369      83           
    275000   1258083        683.61013      1257399.4      0.24549523     222.07173      340.64381      304.36472      297.77247      301.19681      169386.11     -42.816964      83           
    276000   1258066.9      674.79312      1257392.1      0.24549523     219.20751      297.24563      297.96635      297.31467      300.45796      169503.71      49.959853      77           
    277000   1258070.2      673.14516      1257397.1      0.24549523     218.67216      296.17133      298.03696      295.02809      300.95498      169445.44     -40.47069       77           
    278000   1258072.4      671.60792      1257400.8      0.24549523     218.17279      301.96427      299.05741      291.6808       300.52414      169451.85      32.14702       82           
    279000   1258075.7      676.25171      1257399.5      0.24549523     219.68133      282.74208      296.16677      301.78899      301.17543      169441.41     -2.843083       74           
    280000   1258063.6      672.83592      1257390.8      0.24549523     218.57171      255.18562      299.04746      293.72542      300.61664      169453         2.5416571      74           
    281000   1258078        679.29339      1257398.7      0.24549523     220.66943      284.64182      296.89317      304.76954      299.91313      169468.82      17.518343      80           
    282000   1258084.2      683.53984      1257400.7      0.24549523     222.04889      261.49948      302.49434      301.56768      300.80334      169417.43     -18.876929      72           
    283000   1258079.9      682.16479      1257397.7      0.24549523     221.6022       234.11323      298.80378      305.66246      301.2788       169496.9       36.464224      77           
    284000   1258075        681.00513      1257393.9      0.24549523     221.22549      232.92205      299.68865      302.82946      301.69619      169423.73     -31.07731       79           
    285000   1258079.5      683.83158      1257395.6      0.24549523     222.14366      251.03043      301.67774      302.6823       303.05688      169460.4       45.394726      74           
    286000   1258077.1      679.23826      1257397.8      0.24549523     220.65152      261.5569       302.85092      295.38936      302.4163       169420.68     -32.90712       81           
    287000   1258066.6      671.75521      1257394.8      0.24549523     218.22064      290.18799      297.23716      294.23908      302.49731      169474.5       32.184528      79           
    288000   1258079.6      682.33286      1257397.2      0.24549523     221.6568       281.70919      299.97802      303.12795      302.91798      169462.88     -5.0779888      89           
    289000   1258081.4      685.54817      1257395.8      0.24549523     222.7013       310.00341      304.03581      300.67872      302.55689      169432.43      3.6298862      89           
    290000   1258080        681.37239      1257398.6      0.24549523     221.34479      303.1138       300.70744      301.30997      300.06406      169508.1       11.467473      92           
    291000   1258070.9      677.61955      1257393.3      0.24549523     220.12568      293.13503      298.55263      300.50959      298.4243       169420.21     -5.6111329      91           
    292000   1258083.5      686.68629      1257396.8      0.24549523     223.07102      328.59021      301.63029      306.56499      298.21838      169471.78      21.835994      95           
    293000   1258081.9      681.87357      1257400        0.24549523     221.5076       294.29673      301.91513      300.6095       299.59435      169419.6      -17.559173      98           
    294000   1258074.2      677.63268      1257396.5      0.24549523     220.12994      292.88187      299.64839      298.47925      299.99193      169461.4       21.565144      99           
    295000   1258071.5      678.76637      1257392.7      0.24549523     220.49822      318.87061      300.66496      297.27046      302.58325      169441.33     -10.746549      92           
    296000   1258082.8      676.52241      1257406.2      0.24549523     219.76927      305.19029      299.50766      296.20275      303.5096       169428.85      21.774657      93           
    297000   1258081.9      687.14942      1257394.7      0.24549523     223.22147      298.76162      304.6538       301.67679      303.1278       169458.19     -3.6783603      88           
    298000   1258068.3      672.31594      1257395.9      0.24549523     218.40279      307.82304      297.07842      295.15304      301.60579      169456.07      10.999865      92           
    299000   1258082.8      680.54153      1257402.2      0.24549523     221.07488      296.21497      299.60589      302.37798      298.82272      169454.79      2.2013288      98           
    300000   1258077.6      678.30643      1257399.3      0.24549523     220.34881      318.25038      301.18335      297.60894      296.30577      169448.16      8.3207797      91           
    301000   1258082.2      680.18138      1257402        0.24549523     220.95789      282.07708      300.73091      300.79975      297.39831      169433.53      1.687025       82           
    302000   1258080.2      675.65697      1257404.6      0.24549523     219.48813      278.4821       298.17349      298.8267       298.58679      169451         4.6980901      87           
    303000   1258071.4      670.81121      1257400.6      0.24549523     217.91398      257.92032      294.22217      298.96922      299.03384      169446.39      5.9818314      93           
    304000   1258084.8      681.18185      1257403.6      0.24549523     221.28289      269.00356      300.22434      301.68908      302.30287      169464.27     -9.8570232      90           
    305000   1258071.5      675.67856      1257395.8      0.24549523     219.49514      310.9569       298.35359      297.02058      302.76776      169476.95      23.415137      88           
    306000   1258074        675.98115      1257398        0.24549523     219.59344      327.34381      296.55167      300.23687      301.75282      169444.14     -9.5521663      86           
    307000   1258083.5      680.11204      1257403.4      0.24549523     220.93536      297.7693       298.78877      302.47731      300.91577      169449.67      20.469787      81           
    308000   1258083.4      681.12777      1257402.3      0.24549523     221.26533      282.22847      302.6057       298.38312      300.18725      169471.64     -6.9248629      78           
    309000   1258084.4      682.31794      1257402        0.24549523     221.65195      296.85364      301.8109       301.27493      298.65496      169446.46      10.804866      79           
    310000   1258073.3      674.81877      1257398.4      0.24549523     219.21584      266.19872      298.95784      296.68545      298.80065      169463.58     -1.5281454      79           
    311000   1258077.4      677.4448       1257399.9      0.24549523     220.06891      303.38598      297.55121      301.67091      298.42894      169456.44      9.5393706      77           
    312000   1258082.7      681.51622      1257401.2      0.24549523     221.39152      276.7396       299.2882       304.16724      299.31316      169470.26      5.1435656      82           
    313000   1258087.6      690.00178      1257397.6      0.24549523     224.14806      309.36244      306.34062      303.70512      298.86082      169412.3      -3.6578082      76           
    314000   1258072.4      676.85366      1257395.5      0.24549523     219.87688      302.29801      297.47843      300.87633      298.99142      169487.26      13.877532      71           
    315000   1258061.3      672.32204      1257389        0.24549523     218.40477      311.80887      295.19131      298.92334      298.05772      169444.2      -9.6414902      75           
    316000   1258075.9      678.6488       1257397.2      0.24549523     220.46003      305.52021      298.18202      302.3623       297.74331      169458.64      11.436079      76           
    317000   1258082.4      681.13649      1257401.2      0.24549523     221.26816      310.883        301.98974      299.23267      299.16595      169427.92     -7.8525894      84           
    318000   1258069.1      675.1354       1257394        0.24549523     219.3187       282.65884      299.59734      296.01028      298.4311       169466.32      14.894618      80           
    319000   1258083.8      681.14873      1257402.6      0.24549523     221.27214      300.72319      300.55865      302.02254      297.34139      169487.91     -9.5773644      84           
    320000   1258078        673.19529      1257404.8      0.24549523     218.68845      265.0593       298.45679      295.76167      297.78068      169443.36      19.665802      85           
    321000   1258081.5      684.44711      1257397.1      0.24549523     222.34362      258.15349      304.58497      300.42376      298.22598      169465.28     -10.668942      93           
    322000   1258084.9      685.01749      1257399.9      0.24549523     222.52891      278.97218      304.03815      301.82121      297.52961      169442.3       12.892493      97           
    323000   1258081.4      679.27573      1257402.1      0.24549523     220.66369      254.43531      297.77979      304.41946      297.73345      169469.71      8.811751       97           
    324000   1258071.3      676.22001      1257395        0.24549523     219.67103      305.94988      297.63469      300.24816      297.42745      169446.66     -5.7226495      90           
    325000   1258080.5      679.09305      1257401.4      0.24549523     220.60434      285.416        300.34859      299.99276      297.57336      169472.2       18.798051      90           
    326000   1258085        684.27085      1257400.7      0.24549523     222.28636      268.47244      299.62936      307.94937      296.42072      169456.01     -20.683637      88           
    327000   1258076        678.63231      1257397.4      0.24549523     220.45467      282.89766      302.17896      297.08066      295.88446      169456.89      28.063542      90           
    328000   1258066.6      677.16562      1257389.4      0.24549523     219.97822      263.15412      303.05926      294.24855      295.88359      169437.65     -23.16189       84           
    329000   1258074.1      681.31015      1257392.8      0.24549523     221.32457      239.35018      301.08361      302.14644      297.53923      169472.36      29.511099      86           
    330000   1258073.4      676.43599      1257397        0.24549523     219.74119      240.23612      300.20021      297.76662      296.79027      169450.42     -14.696908      90           
    331000   1258080        680.47332      1257399.5      0.24549523     221.05273      287.64163      299.71266      302.88064      296.55819      169472.13      15.909042      108          
    332000   1258071.9      676.20202      1257395.7      0.24549523     219.66519      274.09182      298.14683      300.19144      296.52043      169413.89      0.61142541     99           
    333000   1258078.8      677.03512      1257401.8      0.24549523     219.93582      295.79992      299.06734      299.71201      295.69554      169489.17      2.1902323      104          
    334000   1258067.3      675.23114      1257392.1      0.24549523     219.3498       309.36062      299.99211      296.04353      295.1302       169454.88      11.166217      98           
    335000   1258082.8      679.898        1257402.9      0.24549523     220.86584      312.93561      299.09561      302.82698      296.11919      169449.7      -6.3288342      93           
    336000   1258080.5      686.98643      1257393.5      0.24549523     223.16852      291.04827      303.16905      305.79671      295.91116      169460.23      19.003935      99           
    337000   1258069.9      673.30927      1257396.6      0.24549523     218.72547      277.14902      297.47342      297.31139      297.73109      169443.62     -10.341561      109          
    338000   1258076        680.89194      1257395.1      0.24549523     221.18872      324.87727      299.30856      303.01837      297.8263       169469.87      18.035453      112          
    339000   1258080.5      683.24854      1257397.2      0.24549523     221.95426      319.93536      301.60804      302.32755      298.57414      169451.75     -6.8993141      118          
    340000   1258083.3      681.42656      1257401.9      0.24549523     221.36239      321.98094      299.45596      303.07269      299.17888      169444.24      12.329267      125          
    341000   1258080.6      680.32615      1257400.2      0.24549523     221.00492      301.43368      296.99707      305.75271      299.8091       169459.06     -1.0307414      120          
    342000   1258078.3      676.40193      1257401.9      0.24549523     219.73013      286.43594      301.58939      294.61944      298.90721      169457.31      0.2362507      113          
    343000   1258092.6      686.58587      1257406        0.24549523     223.0384       273.06809      303.85827      304.19065      297.49121      169464.95      7.9006532      115          
    344000   1258086.1      685.73426      1257400.3      0.24549523     222.76175      291.71479      304.73354      301.50826      297.33166      169440.89     -2.1911675      120          
    345000   1258081.5      684.08844      1257397.4      0.24549523     222.2271       322.66367      303.99068      299.99593      297.4628       169453.05      13.204231      123          
    346000   1258081.9      682.57339      1257399.3      0.24549523     221.73494      268.16968      301.12678      302.74092      300.20604      169465.18     -4.6417126      115          
    347000   1258078.9      681.02532      1257397.9      0.24549523     221.23204      260.50797      300.02228      302.41434      300.73076      169457.92      13.883922      104          
    348000   1258075.6      684.00653      1257391.6      0.24549523     222.2005       293.67866      300.46787      305.04464      300.08567      169450.33      1.7315268      107          
    349000   1258072.1      673.46042      1257398.7      0.24549523     218.77458      300.59613      293.6666       302.17398      300.09814      169466.29     -0.39799172     102          
    350000   1258076.5      676.37286      1257400.1      0.24549523     219.72069      229.73571      301.17273      295.65605      299.73279      169462.87      12.346542      96           
    351000   1258085.3      677.69742      1257407.6      0.24549523     220.15097      241.45971      300.6733       297.81799      299.73707      169446.58     -8.7831726      96           
    352000   1258073.6      672.86665      1257400.7      0.24549523     218.58169      255.8467       300.4051       292.55312      298.04626      169418.47      26.475556      94           
    353000   1258075.3      679.22801      1257396.1      0.24549523     220.64819      255.17817      299.16261      301.91534      299.41687      169494.21     -18.265225      101          
    354000   1258079.2      679.17719      1257400        0.24549523     220.63168      250.54242      300.35436      300.20594      299.03828      169435.68      21.765784      96           
    355000   1258079.7      681.7733       1257397.9      0.24549523     221.47503      280.29862      304.01346      296.89975      300.90005      169426.12     -8.1749569      95           
    356000   1258071.3      676.97207      1257394.3      0.24549523     219.91534      250.72526      300.62854      296.41512      301.1455       169487.41      15.678607      83           
    357000   1258079.1      679.12099      1257400        0.24549523     220.61342      242.86634      303.62829      294.33041      302.39133      169457.45      3.5323429      87           
    358000   1258084.9      683.08875      1257401.8      0.24549523     221.90235      267.36517      299.90574      304.9468       300.96462      169452.18     -4.8950555      100          
    359000   1258084.9      687.95972      1257397        0.24549523     223.4847       282.79699      304.76369      303.48895      300.54594      169444.6       18.647174      97           
    360000   1258075.1      675.90334      1257399.2      0.24549523     219.56816      279.76483      298.9834       297.51958      300.03661      169475.16     -12.865719      91           
    361000   1258084.6      682.01706      1257402.6      0.24549523     221.55421      285.12099      303.89084      297.42073      300.67881      169471.64      14.888049      96           
    362000   1258078.4      679.05202      1257399.3      0.24549523     220.59102      299.67389      301.56544      296.86569      301.27763      169413.89     -6.1870125      106          
    363000   1258070.2      669.78886      1257400.4      0.24549523     217.58187      270.5609       295.01646      296.16499      299.85281      169480.43      9.6773998      107          
    364000   1258080        677.9858       1257402        0.24549523     220.24465      286.9026       297.11         302.91164      299.69548      169456.14      3.9376724      103          
    365000   1258074.4      682.08784      1257392.3      0.24549523     221.57721      280.25337      301.03607      302.08248      299.82061      169459.38     -9.370949       104          
    366000   1258073.6      675.91734      1257397.7      0.24549523     219.57271      300.30662      295.18925      302.91176      300.47826      169433.81      29.850305      106          
    367000   1258078.9      684.24269      1257394.6      0.24549523     222.27721      321.49231      302.68394      301.50127      300.18341      169453.08     -27.48775       112          
    368000   1258076.3      681.21646      1257395.1      0.24549523     221.29414      284.3221       302.4787       298.41706      301.3965       169468.65      40.103935      109          
    369000   1258074        676.70847      1257397.3      0.24549523     219.82971      262.48596      297.63202      300.45212      301.66784      169420.95     -33.482761      95           
    370000   1258072.4      671.403        1257401        0.24549523     218.10622      297.03481      295.12553      297.37756      300.67946      169459.66      30.827701      104          
    371000   1258082.5      683.07813      1257399.4      0.24549523     221.8989       303.82804      298.07182      307.08093      301.10108      169450.66     -11.623821      103          
    372000   1258071.9      676.04077      1257395.9      0.24549523     219.61281      307.5033       295.31087      302.33968      301.77372      169455.34      8.7137732      107          
    373000   1258075.3      682.36568      1257393        0.24549523     221.66746      327.381        297.38408      306.92619      300.70519      169448.88      13.551439      109          
    374000   1258066.9      673.04419      1257393.8      0.24549523     218.63937      272.21806      295.84387      298.4833       301.38793      169447.14     -14.110482      93           
    375000   1258063.4      671.9046       1257391.5      0.24549523     218.26917      309.1704       298.00096      293.60747      299.98645      169455.4       28.120837      102          
    376000   1258071.8      670.22309      1257401.5      0.24549523     217.72293      262.15309      293.72334      298.63243      300.37588      169470.16     -18.33767       95           
    377000   1258071.9      677.60867      1257394.3      0.24549523     220.12214      280.53979      298.62581      300.37307      298.88109      169467.1       26.285891      93           
    378000   1258082.7      679.99981      1257402.7      0.24549523     220.89891      268.90177      298.51377      303.64266      299.52467      169448.17     -16.226842      96           
    379000   1258075.6      678.7628       1257396.8      0.24549523     220.49706      290.82698      298.29086      302.44496      298.06442      169461.1       24.326986      94           
    380000   1258086.1      683.56133      1257402.5      0.24549523     222.05587      295.92255      304.87621      298.22039      298.63327      169439.25     -12.439001      102          
    381000   1258081.6      680.35773      1257401.3      0.24549523     221.01518      288.62407      304.17034      295.12317      299.96702      169455.77      14.064057      99           
    382000   1258091.4      680.44774      1257411        0.24549523     221.04442      293.93032      299.70292      301.67918      300.52256      169437.71      5.8243516      103          
    383000   1258082.8      681.56991      1257401.2      0.24549523     221.40896      269.20331      302.05416      299.69422      301.3748       169465.15     -1.177127       97           
    384000   1258089.7      688.81895      1257400.8      0.24549523     223.76382      230.04821      301.95732      309.21639      301.41513      169462.74      12.667726      86           
    385000   1258075.4      680.32557      1257395.1      0.24549523     221.00473      317.43264      300.65188      300.23249      298.68883      169461.5      -11.053632      103          
    386000   1258087        683.58522      1257403.4      0.24549523     222.06363      303.45411      302.03819      302.19188      299.41144      169467.78      22.364375      102          
    387000   1258075.9      679.76025      1257396.1      0.24549523     220.82109      294.98958      299.96916      300.2327       301.30282      169462.49     -17.702897      99           
    388000   1258078.1      681.3948       1257396.7      0.24549523     221.35207      289.71467      301.17886      300.49587      301.40842      169479.69      25.453959      87           
    389000   1258070.8      675.43083      1257395.4      0.24549523     219.41467      326.14765      297.2572       298.25326      302.38569      169448.24     -17.046192      89           
    390000   1258079.6      682.31385      1257397.2      0.24549523     221.65063      310.3764       302.26953      299.24124      302.95305      169461.58      18.726002      83           
    391000   1258085.4      683.77977      1257401.6      0.24549523     222.12683      307.79194      300.48933      303.66503      303.35307      169445.91     -1.7808545      78           
    392000   1258088.6      682.32372      1257406.3      0.24549523     221.65383      322.36159      301.58141      300.45294      301.65526      169426.82      6.9355623      88           
    393000   1258094.4      688.21722      1257406.1      0.24549523     223.56835      285.24685      305.08694      302.87257      301.81376      169469.58      2.2497557      87           
    394000   1258083.4      680.86618      1257402.5      0.24549523     221.18035      247.66745      304.69135      295.03576      302.01256      169431.02      4.0108718      83           
    395000   1258079.9      679.17707      1257400.7      0.24549523     220.63164      285.85556      302.80917      294.87871      303.04915      169450.79      6.5665573      84           
    396000   1258088.5      684.13266      1257404.4      0.24549523     222.24147      266.81359      304.26463      299.02544      302.76733      169453.45      3.2938387      81           
    397000   1258085.1      682.88008      1257402.2      0.24549523     221.83457      298.33103      302.48331      299.84627      302.75741      169455.56      6.7807012      94           
    398000   1258085.6      682.56601      1257403.1      0.24549523     221.73254      306.36136      299.69772      303.41412      302.99951      169457.26     -0.67917982     89           
    399000   1258088.2      682.38718      1257405.8      0.24549523     221.67445      315.53984      299.82019      302.63952      304.07446      169463.26      5.8057856      95           
    400000   1258079.4      682.38893      1257397        0.24549523     221.67502      308.50298      302.72281      298.36425      304.55799      169433.59      0.28096152     99           
    401000   1258074.8      677.33191      1257397.5      0.24549523     220.03223      326.1497       299.65903      296.36826      304.54371      169484.21      8.3569114      99           
    402000   1258073.6      674.89941      1257398.7      0.24549523     219.24204      333.83572      298.5457       294.95649      304.47874      169444.87      3.9708897      103          
    403000   1258073.1      682.55008      1257390.5      0.24549523     221.72737      311.15051      300.66767      302.02725      302.55138      169440.5       10.267094      101          
    404000   1258082.2      683.78262      1257398.4      0.24549523     222.12776      301.50061      304.4341       298.39193      301.18728      169477.15      7.8120495      104          
    405000   1258078.9      682.43376      1257396.4      0.24549523     221.68958      286.01571      301.70501      301.39475      300.10071      169444.14     -2.9520071      111          
    406000   1258075.1      676.65498      1257398.4      0.24549523     219.81233      304.83232      296.34268      302.35676      298.85228      169472.11      11.568496      110          
    407000   1258083.4      679.55531      1257403.8      0.24549523     220.75451      314.70448      298.69823      302.13298      299.09689      169405.25     -4.4686482      114          
    408000   1258074.8      678.06492      1257396.7      0.24549523     220.27035      286.39602      297.35856      302.66611      299.77255      169505.18      13.713297      101          
    409000   1258068.2      677.26889      1257391        0.24549523     220.01176      304.55842      296.13134      302.78853      301.50078      169411.72     -9.7032316      102          
    410000   1258075.8      675.34926      1257400.5      0.24549523     219.38817      302.48509      300.36164      293.82682      302.33803      169473.64      23.321667      93           
    411000   1258083.3      682.47295      1257400.8      0.24549523     221.70231      301.96658      302.21375      299.32342      304.15952      169468.6      -12.248457      92           
    412000   1258074.4      680.20505      1257394.2      0.24549523     220.96558      272.31951      301.3145       298.17551      304.59201      169439.7       20.355969      87           
    413000   1258081.9      680.36445      1257401.6      0.24549523     221.01736      282.08236      298.93719      302.12629      303.3114       169432.36     -16.752248      84           
    414000   1258074.1      680.50765      1257393.6      0.24549523     221.06388      282.03624      303.64104      295.6782       301.81719      169445.49      27.137943      94           
    415000   1258084.9      682.90761      1257402        0.24549523     221.84351      307.35571      303.09346      299.35059      300.79817      169485.23     -17.714511      93           
    416000   1258081.4      678.49604      1257402.9      0.24549523     220.4104       282.61231      297.97345      302.12708      300.3332       169428.37      11.135994      98           
    417000   1258084.9      675.39203      1257409.5      0.24549523     219.40206      291.4443       299.51063      295.54976      301.50226      169471.22      7.131513       97           
    418000   1258073.4      676.73508      1257396.7      0.24549523     219.83836      309.50684      301.12388      293.84502      303.94285      169442.07     -8.9328188      104          
    419000   1258076.3      677.51077      1257398.8      0.24549523     220.09034      297.08943      300.47452      295.5513       305.56078      169448.58      31.426888      104          
    420000   1258084.3      684.25729      1257400        0.24549523     222.28196      259.6276       302.78853      300.98977      305.19652      169404.9      -28.226264      92           
    421000   1258083.8      683.06076      1257400.7      0.24549523     221.89326      279.26266      302.16549      300.32891      304.51299      169477.17      41.365327      93           
    422000   1258080.4      681.79494      1257398.6      0.24549523     221.48206      290.31215      304.77073      294.84342      304.1723       169426.1      -32.211307      102          
    423000   1258077.4      679.03192      1257398.4      0.24549523     220.58449      330.57832      303.58528      293.41423      300.76916      169496.37      32.909141      105          
    424000   1258086.6      684.57997      1257402        0.24549523     222.38678      257.87934      303.83753      301.12992      300.45417      169457.15     -18.077652      97           
    425000   1258082.6      684.97493      1257397.6      0.24549523     222.51508      276.07201      299.73248      307.42483      300.71468      169469.23      16.655399      92           
    426000   1258080.7      683.5352       1257397.1      0.24549523     222.04738      295.5793       301.48349      302.78241      300.56616      169440.23     -3.9013501      98           
    427000   1258079.5      686.98823      1257392.5      0.24549523     223.1691       264.33609      304.35435      302.89447      301.75526      169407.95     -1.0793918      101          
    428000   1258074.7      681.05464      1257393.7      0.24549523     221.24157      281.02601      301.40168      299.35763      303.40742      169473         21.205056      107          
    429000   1258083.3      687.32264      1257396        0.24549523     223.27774      314.09762      303.81663      303.16455      302.31235      169429.74     -19.4487        107          
    430000   1258085.3      681.43792      1257403.8      0.24549523     221.36608      328.41531      301.38802      299.16659      302.72593      169487.13      38.739174      105          
    431000   1258085.9      684.06141      1257401.9      0.24549523     222.21832      327.55466      303.99186      298.42902      303.02101      169416.19     -32.39834       110          
    432000   1258075        681.27406      1257393.7      0.24549523     221.31285      335.54847      302.49903      297.35745      302.12763      169504.59      44.823726      111          
    433000   1258081.6      684.43422      1257397.2      0.24549523     222.33943      291.36428      300.35075      304.85855      303.65618      169442.77     -42.817905      109          
    434000   1258086.4      681.9298       1257404.5      0.24549523     221.52587      282.51947      299.88441      302.68528      303.46687      169456.75      47.564708      110          
    435000   1258093.2      685.65029      1257407.5      0.24549523     222.73447      304.0074       303.77716      301.32291      302.36713      169488.29     -33.216758      108          
    436000   1258083.6      686.85898      1257396.7      0.24549523     223.12712      305.8642       303.76397      302.68978      302.77948      169456.25      29.719502      106          
    437000   1258080        684.76849      1257395.2      0.24549523     222.44802      302.68672      302.44274      302.29418      302.26664      169464.24     -9.5344304      116          
    438000   1258076.9      681.41118      1257395.5      0.24549523     221.35739      322.30111      302.74053      297.59825      301.29732      169429.68      11.470993      115          
    439000   1258078.5      682.90724      1257395.6      0.24549523     221.84339      300.67124      300.41269      303.03734      302.48183      169472.57      4.6785989      108          
    440000   1258070.2      675.02733      1257395.2      0.24549523     219.28359      275.38407      299.31714      295.38771      302.60985      169428.23     -8.0093409      107          
    441000   1258067.4      673.22301      1257394.2      0.24549523     218.69745      291.4546       298.67001      293.71941      303.19917      169432.1       29.49048       109          
    442000   1258079.6      677.84609      1257401.7      0.24549523     220.19927      318.63254      297.85711      300.14991      303.29336      169462.73     -25.74756       103          
    443000   1258063.6      671.81299      1257391.8      0.24549523     218.23941      319.10754      295.39946      297.06479      300.80333      169437.27      41.17854       108          
    444000   1258073.5      668.87628      1257404.7      0.24549523     217.28541      334.98814      294.53613      295.03819      298.62484      169433.23     -34.659528      111          
    445000   1258079.9      682.6431       1257397.3      0.24549523     221.75758      286.64542      299.36985      305.25945      299.78778      169485.19      46.28047       105          
    446000   1258072.2      676.00109      1257396.2      0.24549523     219.59992      275.73233      298.05685      299.04823      300.09214      169438.55     -33.171032      105          
    447000   1258079.1      679.24471      1257399.8      0.24549523     220.65361      297.45499      299.90781      299.464        301.90815      169455.91      29.695423      111          
    448000   1258070.5      672.3711       1257398.1      0.24549523     218.42071      305.84989      295.0201       297.64435      304.22584      169425.8      -5.832168       106          
    449000   1258093.5      687.34365      1257406.1      0.24549523     223.28456      282.90975      303.34586      302.95671      307.66529      169441.88      0.093778165    93           
    450000   1258081.5      684.0112       1257397.5      0.24549523     222.20201      320.61067      302.70582      299.2194       307.886        169471.65      23.826618      89           
    451000   1258074.7      680.61261      1257394.1      0.24549523     221.09797      321.24035      298.39962      301.69122      307.33072      169437.74     -20.691585      84           
    452000   1258083.1      680.06865      1257403        0.24549523     220.92127      304.563        299.36396      300.49482      304.6148       169446.48      35.153002      73           
    453000   1258077.5      674.77505      1257402.7      0.24549523     219.20164      298.41917      298.88073      295.05246      303.49861      169467.43     -23.793698      72           
    454000   1258079.2      677.0037       1257402.2      0.24549523     219.92561      307.55866      299.07841      297.89427      301.72567      169431.28      32.687113      78           
    455000   1258068.1      676.55999      1257391.5      0.24549523     219.78148      320.50033      297.9613       299.30081      300.43735      169470.23     -18.165664      75           
    456000   1258084.3      681.9173       1257402.4      0.24549523     221.52181      334.06479      299.63196      302.87233      301.22502      169460.48      16.240468      86           
    457000   1258068.8      671.05857      1257397.7      0.24549523     217.99433      342.93789      296.52847      293.6673       302.69793      169449.22      2.6500597      87           
    458000   1258079.2      682.4272       1257396.7      0.24549523     221.68745      375.53265      303.64929      295.93283      304.32185      169440.6      -2.2097495      98           
    459000   1258083.6      689.71195      1257393.9      0.24549523     224.05391      346.01091      305.35864      302.32209      306.04039      169461.78      22.411419      94           
    460000   1258073.3      676.87243      1257396.4      0.24549523     219.88297      332.53204      299.39835      295.94037      305.24485      169469.32     -14.210387      92           
    461000   1258086.2      679.37162      1257406.9      0.24549523     220.69484      305.60714      298.93059      300.51568      303.71829      169412.03      23.300582      84           
    462000   1258082        678.75593      1257403.2      0.24549523     220.49483      277.98636      299.55625      299.74433      301.55958      169482.36     -8.1980029      80           
    463000   1258081.4      683.06453      1257398.3      0.24549523     221.89449      278.78763      302.32248      301.18963      300.46419      169434.76      12.504634      87           
    464000   1258089.1      681.69565      1257407.4      0.24549523     221.4498       287.11163      302.20267      300.01421      298.78303      169452.95      3.0540476      83           
    465000   1258081.9      682.20094      1257399.7      0.24549523     221.61395      282.46718      300.55299      302.74078      300.42549      169427.09     -3.0272348      84           
    466000   1258084.8      685.10757      1257399.7      0.24549523     222.55817      312.19108      302.00867      303.13156      302.61825      169439.59      14.816409      94           
    467000   1258073        674.32881      1257398.7      0.24549523     219.05667      308.83102      297.08912      297.19069      303.10703      169488.5      -2.7954684      100          
    468000   1258076.1      682.30776      1257393.8      0.24549523     221.64865      333.06781      301.14531      300.43915      303.59002      169435.74      12.877057      89           
    469000   1258076.9      680.06158      1257396.8      0.24549523     220.91897      338.87023      301.5566       297.96923      299.72325      169472.92     -4.6423478      98           
    470000   1258087.3      687.72226      1257399.6      0.24549523     223.40756      311.93948      302.90984      306.18313      298.10144      169443.9       6.0317569      100          
    471000   1258087.2      682.05838      1257405.2      0.24549523     221.56764      292.89786      303.99634      298.35193      296.32468      169457.61      5.2519393      96           
    472000   1258080.1      686.08763      1257394        0.24549523     222.87654      270.15431      304.89554      302.33505      296.48547      169427.15     -1.147639       97           
    473000   1258079.7      676.73226      1257402.9      0.24549523     219.83744      253.74323      298.55768      300.23433      297.36977      169470.2       9.1075783      87           
    474000   1258080.8      678.52298      1257402.3      0.24549523     220.41916      266.4279       301.47347      297.0836       300.54412      169441.13     -9.5490811      97           
    475000   1258074.9      679.62329      1257395.2      0.24549523     220.77659      222.45597      301.33118      298.73259      302.47606      169430.6       23.002282      91           
    476000   1258081.7      679.93964      1257401.7      0.24549523     220.87936      245.90007      301.22819      298.45921      304.45974      169453.24     -10.36022       96           
    477000   1258088.2      682.92669      1257405.3      0.24549523     221.84971      245.68764      302.69381      299.75027      305.10686      169442.91      14.463351      99           
    478000   1258073.7      678.39016      1257395.3      0.24549523     220.37601      253.44584      300.48734      297.92379      303.0089       169470.54     -1.8345937      94           
    479000   1258068.1      676.74679      1257391.4      0.24549523     219.84216      236.14163      299.25833      298.4842       300.95553      169426.92      13.519717      88           
    480000   1258073.3      677.53119      1257395.8      0.24549523     220.09697      277.44401      302.19356      294.92043      299.40868      169498        -2.5983521      98           
    481000   1258070.4      675.34784      1257395        0.24549523     219.38771      280.43471      296.61503      300.51624      299.59482      169395.49      2.7584184      94           
    482000   1258080.6      684.55753      1257396.1      0.24549523     222.37949      284.02181      300.39909      305.83094      300.40409      169491.46      3.2348087      88           
    483000   1258071.6      678.38761      1257393.2      0.24549523     220.37518      326.04573      300.4845       297.18716      302.0735       169442.87      3.8793296      92           
    484000   1258088.5      684.9583       1257403.6      0.24549523     222.50968      279.50319      302.19423      302.5178       304.88208      169476.35      5.6151589      86           
    485000   1258077.4      682.80238      1257394.6      0.24549523     221.80932      280.15148      300.71908      301.72457      306.23107      169439.06      4.8613853      88           
    486000   1258082.6      682.61215      1257399.9      0.24549523     221.74753      308.81587      300.48197      301.67184      305.41739      169427.61     -3.817313       81           
    487000   1258088.5      682.30019      1257406.2      0.24549523     221.64619      299.00885      300.73305      300.88366      305.99961      169521.8       15.059108      85           
    488000   1258078.7      675.62538      1257403.1      0.24549523     219.47787      282.97472      299.83134      294.41908      305.41429      169419.68     -9.8643044      95           
    489000   1258082.5      676.43148      1257406.1      0.24549523     219.73973      280.2222       297.76709      298.64527      305.07721      169471.16      15.695403      90           
    490000   1258075.7      678.91924      1257396.7      0.24549523     220.54788      280.31192      299.0406       299.73362      305.19984      169422.52     -4.5333539      87           
    491000   1258078.7      682.69411      1257396        0.24549523     221.77415      233.30627      302.70326      299.23974      306.72412      169494.93      11.169395      98           
    492000   1258090.3      685.65742      1257404.7      0.24549523     222.73679      261.32442      302.04028      303.00185      308.26943      169440.11      12.753813      93           
    493000   1258076.9      681.49798      1257395.4      0.24549523     221.38559      254.57329      300.60592      299.95279      308.72581      169456.55     -1.9070634      85           
    494000   1258071.7      676.82111      1257394.9      0.24549523     219.8663       248.3944       297.3928       299.07024      308.74994      169480.76      18.805737      84           
    495000   1258082.3      686.84009      1257395.4      0.24549523     223.12098      269.36974      301.35737      305.1562       308.70472      169438.37     -9.3904207      78           
    496000   1258076.8      678.47356      1257398.4      0.24549523     220.4031       269.41877      298.86357      299.20089      306.57797      169482.7       20.920685      80           
    497000   1258077.7      678.5989       1257399.1      0.24549523     220.44382      292.53376      298.91438      299.67471      304.032        169432.7      -16.264492      82           
    498000   1258081        687.94978      1257393        0.24549523     223.48147      315.73274      304.82844      301.86848      304.34806      169477.95      29.365628      78           
    499000   1258085.8      680.23919      1257405.5      0.24549523     220.97667      275.27771      300.64902      298.90936      305.38318      169421.7      -17.580627      75           
    500000   1258077.7      679.86277      1257397.9      0.24549523     220.85439      277.25165      299.41971      300.05351      306.23122      169480.71      26.566552      77           
    501000   1258078.2      676.78765      1257401.4      0.24549523     219.85543      313.51856      298.17753      297.10041      308.41159      169426.86     -14.254651      96           
    502000   1258078.7      677.68916      1257401        0.24549523     220.14829      277.67795      299.12771      297.00466      309.45357      169466.56      15.295243      82           
    503000   1258076        675.57369      1257400.4      0.24549523     219.46107      265.54743      297.52444      297.00882      309.20566      169428.06     -0.99641685     82           
    504000   1258083.1      685.76349      1257397.3      0.24549523     222.77125      252.19825      300.51188      305.28732      308.77144      169453.38      2.5980095      77           
    505000   1258082        681.20893      1257400.8      0.24549523     221.29169      293.60379      299.86994      300.68727      306.78586      169465.47      12.105675      78           
    506000   1258082        680.44568      1257401.6      0.24549523     221.04375      276.45359      302.42429      296.30752      306.14392      169433.3      -11.171678      82           
    507000   1258074        677.06905      1257396.9      0.24549523     219.94684      261.04894      297.17088      300.29406      306.18823      169510.64      26.001569      89           
    508000   1258080.1      677.20481      1257402.9      0.24549523     219.99095      272.65607      298.72719      297.58616      307.58093      169374.33     -21.494817      89           
    509000   1258084.9      678.42095      1257406.5      0.24549523     220.38601      264.8938       297.86345      299.90765      309.58134      169499.59      26.169922      88           
    510000   1258086.1      687.37708      1257398.7      0.24549523     223.29542      298.11871      304.6405       299.72777      311.86362      169423.91     -13.641398      92           
    511000   1258087.8      687.45033      1257400.4      0.24549523     223.31922      319.28279      302.26528      303.399        310.80047      169471.6       19.611659      99           
    512000   1258086.5      687.51088      1257399        0.24549523     223.33889      265.30712      303.12417      303.0664       310.45895      169435.86     -5.3427368      101          
    513000   1258071.3      677.00048      1257394.3      0.24549523     219.92457      275.05335      294.82934      302.43654      310.39448      169426.84      2.4526659      93           
    514000   1258078.1      683.05571      1257395        0.24549523     221.89162      292.51168      305.418        293.97353      309.38712      169495.7       12.635375      92           
    515000   1258087.8      686.76634      1257401.1      0.24549523     223.09702      279.6625       302.82607      302.8727       308.3103       169422.59     -9.698676       91           
    516000   1258078.3      679.22494      1257399.1      0.24549523     220.64719      251.24496      298.29891      300.32776      310.04907      169479.45      24.681429      86           
    517000   1258084.4      683.04843      1257401.4      0.24549523     221.88926      310.89087      302.23999      298.06026      310.81299      169434.39     -13.634216      86           
    518000   1258073        676.91338      1257396.1      0.24549523     219.89628      287.02876      296.976        298.57351      311.57062      169495.93      25.250161      81           
    519000   1258081.5      680.79804      1257400.7      0.24549523     221.15821      306.45763      298.69355      300.01428      313.42783      169422.73     -9.5427545      81           
    520000   1258074.6      678.26016      1257396.4      0.24549523     220.33378      300.10583      297.02028      299.1838       314.9136       169453.18      16.844601      76           
    521000   1258077.3      687.30198      1257390        0.24549523     223.27103      303.46837      301.07733      304.28726      314.02757      169461.48     -3.9761831      71           
    522000   1258075.6      677.23575      1257398.4      0.24549523     220.001        303.41354      295.85002      299.88923      313.6166       169459.78      12.238353      75           
    523000   1258083.4      686.58559      1257396.8      0.24549523     223.03831      310.50403      299.85765      305.63237      312.28627      169466.96      2.4595937      72           
    524000   1258076.8      680.86764      1257395.9      0.24549523     221.18082      325.73861      299.13231      300.07703      310.21841      169418.83      7.0295017      72           
    525000   1258084.4      685.11489      1257399.3      0.24549523     222.56055      311.57761      301.31437      302.20144      310.12568      169469.42      8.4476524      77           
    526000   1258093.2      689.51505      1257403.6      0.24549523     223.98995      325.64872      304.19675      303.07961      310.19042      169455.68     -5.0167666      81           
    527000   1258077.5      678.44467      1257399.1      0.24549523     220.39372      345.68797      300.06905      295.36358      310.44216      169461.02      9.2927126      82           
    528000   1258083.4      681.05761      1257402.3      0.24549523     221.24253      349.43097      300.49584      297.78118      310.6434       169438.72      3.783277       91           
    529000   1258081.2      681.94091      1257399.3      0.24549523     221.52948      304.05663      300.87523      298.7136       311.55584      169476.75     -1.4205868      88           
    530000   1258095.5      692.9047       1257402.6      0.24549523     225.09108      326.35071      305.55282      305.00715      310.74064      169489.54      9.3266564      99           
    531000   1258087.5      681.50555      1257406        0.24549523     221.38805      286.71349      300.30165      299.45428      310.80975      169440.88     -0.55059411     90           
    532000   1258080.3      686.49056      1257393.8      0.24549523     223.00743      326.20146      301.00427      304.09207      310.29454      169441.98      14.244516      95           
    533000   1258078.2      679.01129      1257399.2      0.24549523     220.57778      318.37424      300.85351      295.31941      309.94357      169480.07     -8.4563088      104          
    534000   1258079        678.14876      1257400.8      0.24549523     220.29759      307.78842      298.35296      298.33171      309.29584      169443.78      18.430135      95           
    535000   1258087.9      686.49322      1257401.4      0.24549523     223.0083       299.34826      300.62038      304.6499       311.83404      169432.99     -3.3261856      94           
    536000   1258083.1      674.76579      1257408.3      0.24549523     219.19863      305.84494      296.92772      295.78409      311.68052      169476.57      3.6387845      95           
    537000   1258093.2      684.4474       1257408.8      0.24549523     222.34371      294.23755      302.80397      299.09975      310.99955      169470.38      16.740563      101          
    538000   1258075.8      678.76386      1257397        0.24549523     220.49741      286.56948      301.05361      294.87347      311.16288      169409.06     -20.611811      94           
    539000   1258088.6      682.15476      1257406.5      0.24549523     221.59895      325.70042      303.33377      295.43277      309.6579       169452.85      39.713851      95           
    540000   1258093.1      687.24885      1257405.9      0.24549523     223.25377      296.02239      307.46429      296.02716      309.13808      169435.01     -39.986603      99           
    541000   1258084.9      684.78703      1257400.1      0.24549523     222.45404      307.90528      304.32918      297.54971      309.27683      169480.4       45.822896      99           
    542000   1258081.3      678.51387      1257402.8      0.24549523     220.4162       304.74939      298.16536      299.15708      309.25155      169436.24     -30.765701      99           
    543000   1258087        686.42219      1257400.6      0.24549523     222.98523      279.75742      303.02019      301.35508      311.66095      169503.32      28.339243      106          
    544000   1258077.5      683.76465      1257393.7      0.24549523     222.12192      275.76576      303.34134      297.67906      311.44707      169413.06     -9.7857922      104          
    545000   1258079        681.8623       1257397.1      0.24549523     221.50394      304.22702      297.81466      302.97965      312.39675      169435.26      3.4671447      104          
    546000   1258072.5      671.36403      1257401.1      0.24549523     218.09356      276.9973       297.20592      291.69907      311.09536      169473.29      17.738832      90           
    547000   1258070.9      682.12156      1257388.8      0.24549523     221.58816      267.1908       299.75724      301.93367      308.43293      169452.38     -23.022774      89           
    548000   1258080.1      681.31808      1257398.8      0.24549523     221.32715      282.44724      298.25378      303.30691      307.47725      169447.84      35.32495       104          
    549000   1258087.4      686.45726      1257400.9      0.24549523     222.99662      262.17361      303.74485      302.21542      305.39377      169429.4      -34.828231      99           
    550000   1258075.7      677.86461      1257397.9      0.24549523     220.20528      261.37596      298.91865      298.42698      307.06536      169501.4       43.359763      102          
    551000   1258083.6      680.61819      1257403        0.24549523     221.09979      251.06898      301.21815      298.11554      308.20145      169390.15     -32.063706      85           
    552000   1258081.1      685.3948       1257395.7      0.24549523     222.65148      292.02385      302.65273      301.08655      309.08381      169514         27.807033      91           
    553000   1258084.2      685.49354      1257398.7      0.24549523     222.68355      289.47887      301.44394      302.54877      310.97426      169454.9      -10.262241      88           
    554000   1258072.1      673.07919      1257399        0.24549523     218.65073      285.33867      294.60952      297.7389       310.37941      169455.91      10.125138      78           
    555000   1258077.6      678.83642      1257398.8      0.24549523     220.52098      311.73517      298.14843      299.23859      310.13031      169460.59      12.814206      81           
    556000   1258076.5      677.71473      1257398.7      0.24549523     220.15659      311.3454       296.62113      300.23157      309.74522      169442.3      -6.5261807      93           
    557000   1258076.8      681.52036      1257395.3      0.24549523     221.39286      270.97775      300.79678      299.80738      307.38761      169508.18      26.252819      84           
    558000   1258082.8      676.58789      1257406.2      0.24549523     219.79054      204.55253      296.72567      300.98109      306.0578       169394.28     -19.880984      73           
    559000   1258092        688.77911      1257403.2      0.24549523     223.75088      263.79744      302.80055      306.38446      305.29555      169522.69      23.816623      85           
    560000   1258085.3      683.63441      1257401.6      0.24549523     222.07961      324.52905      302.719        299.01978      306.40591      169417.53     -10.881073      95           
    561000   1258075.1      677.67224      1257397.4      0.24549523     220.14279      311.17138      298.56691      297.43056      309.18117      169486.91      14.315753      95           
    562000   1258088.3      686.61196      1257401.7      0.24549523     223.04687      274.69226      302.80394      302.01641      311.28881      169440.83     -0.5734509      91           
    563000   1258084.1      685.02992      1257399.1      0.24549523     222.53294      297.51432      302.72685      300.16311      310.25125      169461.35      3.3694672      104          
    564000   1258080        674.6116       1257405.4      0.24549523     219.14854      286.88421      297.5657       295.40469      309.785        169464.26      7.4495269      102          
    565000   1258085.8      686.28258      1257399.5      0.24549523     222.93988      282.51852      302.46036      303.01417      307.5326       169440.01     -3.9636994      105          
    566000   1258083.5      684.09999      1257399.4      0.24549523     222.23086      321.44534      298.8037       306.45518      302.90876      169437.11      13.535785      109          
    567000   1258077.8      676.47312      1257401.3      0.24549523     219.75326      314.69169      297.00956      300.46555      300.74471      169451.08     -3.8682592      107          
    568000   1258070.6      673.98476      1257396.6      0.24549523     218.94491      302.26862      296.949        297.12804      302.93717      169493.66      11.054288      113          
    569000   1258073.7      676.03745      1257397.7      0.24549523     219.61173      297.07205      300.02559      295.25505      302.41059      169414.62      8.1767927      113          
    570000   1258079.6      681.77445      1257397.8      0.24549523     221.4754       286.72656      299.22208      303.3798       303.60032      169448.49     -9.209362       109          
    571000   1258078.6      680.90714      1257397.7      0.24549523     221.19365      295.61836      299.23038      301.58822      305.686        169457.92      27.81935       118          
    572000   1258066.1      669.58271      1257396.5      0.24549523     217.5149       288.39743      292.28916      298.5883       304.45092      169449.8      -20.180185      119          
    573000   1258073        673.87491      1257399.1      0.24549523     218.90922      291.94871      295.37089      299.19042      304.40458      169447.64      29.942767      126          
    574000   1258079.9      680.22349      1257399.6      0.24549523     220.97157      311.36493      299.54315      300.44148      304.02468      169434.43     -22.012143      122          
    575000   1258081.5      681.57786      1257399.9      0.24549523     221.41154      309.92821      296.86684      306.60993      302.33508      169462.62      31.970601      114          
    576000   1258083.7      680.70187      1257403        0.24549523     221.12697      351.10067      301.39484      298.0542       302.08971      169433.37     -25.453133      111          
    577000   1258074.6      673.1689       1257401.5      0.24549523     218.67988      316.80292      298.18029      294.11968      302.54327      169470.93      29.761687      112          
    578000   1258072.2      673.05038      1257399.1      0.24549523     218.64138      292.92391      294.75462      299.46064      302.81395      169467.07     -13.838281      119          
    579000   1258070.5      676.25743      1257394.3      0.24549523     219.68319      277.79415      299.43165      296.83192      302.2355       169476.18      9.9447412      119          
    580000   1258072.7      678.8757       1257393.8      0.24549523     220.53374      256.01105      298.68604      301.55842      302.32505      169427.41      10.864429      119          
    581000   1258072.3      671.56433      1257400.7      0.24549523     218.15863      247.82552      297.78327      294.25333      301.62604      169417.26     -10.850104      118          
    582000   1258078.1      681.0878       1257397        0.24549523     221.25234      244.97501      301.07014      301.51453      299.91078      169507.59      30.313599      117          
    583000   1258078.5      677.9663       1257400.5      0.24549523     220.23832      238.43164      300.43241      298.7378       299.71946      169412.21     -31.783703      110          
    584000   1258063        667.04576      1257395.9      0.24549523     216.69076      246.60754      294.26035      294.51226      299.45061      169479.22      46.880821      112          
    585000   1258072.9      679.99678      1257392.9      0.24549523     220.89792      301.30719      302.74579      296.64094      299.80837      169435.7      -39.224504      115          
    586000   1258078.5      675.97325      1257402.6      0.24549523     219.59087      260.45867      295.67134      302.83248      300.73082      169477.98      42.820762      115          
    587000   1258083.5      678.89986      1257404.6      0.24549523     220.54159      276.42858      299.38437      300.98219      299.09571      169429.6      -23.324648      109          
    588000   1258074.1      674.3456       1257399.8      0.24549523     219.06213      305.30406      297.49367      297.74273      298.72876      169428.7       19.703932      109          
    589000   1258080.6      677.44876      1257403.2      0.24549523     220.0702       273.53931      297.94827      301.58091      298.16328      169460.06      6.2675025      95           
    590000   1258079.4      675.01196      1257404.4      0.24549523     219.2786       284.04916      297.97286      298.8519       296.40408      169454.11     -12.955051      92           
    591000   1258072.8      677.88914      1257394.9      0.24549523     220.21325      327.4452       301.50736      297.06136      293.79051      169447.42      33.01844       107          
    592000   1258080.7      676.45754      1257404.2      0.24549523     219.7482       303.91175      299.34867      298.61355      295.10317      169413.74     -33.988338      96           
    593000   1258075.8      674.27936      1257401.5      0.24549523     219.04061      295.66191      298.53594      297.57698      293.82485      169469.88      46.78441       104          
    594000   1258073.4      675.16836      1257398.2      0.24549523     219.3294       268.9655       298.15334      299.40053      295.09977      169410.66     -41.211821      107          
    595000   1258080.1      681.68829      1257398.5      0.24549523     221.44741      277.73964      303.6554       298.46072      297.02888      169477.04      47.643185      99           
    596000   1258081.5      681.46043      1257400        0.24549523     221.37339      279.50628      299.20176      304.7246       297.39176      169418.55     -27.804547      96           
    597000   1258086.8      686.95234      1257399.8      0.24549523     223.15745      325.29295      302.21845      306.27994      297.05089      169483.82      19.912914      100          
    598000   1258082.9      680.21662      1257402.6      0.24549523     220.96934      335.73427      300.8943       299.84404      297.26384      169423.41     -1.5637162      98           
    599000   1258082.1      683.92374      1257398.2      0.24549523     222.1736       286.85548      303.40475      301.37778      297.40067      169468.22     -2.1770694      99           
    600000   1258075.6      678.47676      1257397.1      0.24549523     220.40414      295.39578      301.79353      297.08158      296.66253      169445.98      18.568986      107          
    601000   1258078.6      684.59627      1257394        0.24549523     222.39207      282.7424       303.54179      302.21453      296.81896      169426.83     -19.93001       109          
    602000   1258092.7      686.91716      1257405.8      0.24549523     223.14602      289.46067      302.78664      306.29546      295.98328      169464.64      29.334138      102          
    603000   1258087.7      680.41872      1257407.3      0.24549523     221.03499      282.37177      301.3821       300.22568      297.13526      169427.02     -20.490575      102          
    604000   1258077.1      679.2671       1257397.8      0.24549523     220.66089      299.45854      300.62476      299.68677      297.07405      169435.38      22.476857      112          
    605000   1258079.8      680.16065      1257399.7      0.24549523     220.95115      293.97569      301.596        299.51287      296.71673      169445.87     -15.546224      108          
    606000   1258079.6      678.56587      1257401        0.24549523     220.43309      292.45126      302.51545      296.18773      296.75347      169474.76      24.053345      111          
    607000   1258075.8      678.34926      1257397.5      0.24549523     220.36272      293.07314      299.89735      300.25798      295.20361      169433.81     -10.188036      115          
    608000   1258084.8      681.46014      1257403.3      0.24549523     221.3733       306.44744      300.78454      302.57505      294.829        169462.68      17.647864      111          
    609000   1258077.1      674.87295      1257402.2      0.24549523     219.23344      317.86507      300.2779       295.38627      293.65858      169450.27     -4.4148448      110          
    610000   1258072.3      674.34253      1257397.9      0.24549523     219.06113      320.95126      297.22016      299.19685      293.91099      169440.95      2.467337       114          
    611000   1258076.8      676.09033      1257400.7      0.24549523     219.62891      285.23432      301.94134      295.06383      293.1134       169451.22      2.0438716      89           
    612000   1258088.7      682.25659      1257406.5      0.24549523     221.63203      341.88512      300.2767       304.29254      293.38884      169468.28      7.974053       88           
    613000   1258087.1      681.062        1257406.1      0.24549523     221.24396      331.93512      302.13021      300.20714      293.8022       169462.34     -3.8871864      83           
    614000   1258080.5      681.70199      1257398.8      0.24549523     221.45186      300.76959      303.86102      298.30204      295.32457      169476.37      26.556599      97           
    615000   1258081.8      679.54395      1257402.2      0.24549523     220.75082      295.98863      305.99327      292.61349      294.80104      169471.6      -21.041399      99           
    616000   1258081.6      680.42224      1257401.2      0.24549523     221.03613      288.74027      301.96363      299.56075      295.60003      169451.84      27.824262      98           
    617000   1258085.1      680.88667      1257404.2      0.24549523     221.187        281.99464      305.8099       294.90871      294.20532      169437.14     -16.65403       95           
    618000   1258093.6      688.4016       1257405.2      0.24549523     223.62824      312.69329      305.78847      303.71405      294.15748      169425.27      16.19187       99           
    619000   1258089.5      688.05693      1257401.4      0.24549523     223.51627      296.26971      306.36208      302.54781      294.90852      169494.63      0.085100365    93           
    620000   1258082        678.1353       1257403.9      0.24549523     220.29322      260.90568      298.82286      302.32182      294.09732      169427.76     -0.46264028     96           
    621000   1258077.7      680.46431      1257397.3      0.24549523     221.0498       284.08561      306.09114      293.97607      294.28818      169449.48      15.777672      102          
    622000   1258083.1      683.38009      1257399.8      0.24549523     221.997        276.35316      301.26722      304.69773      294.97868      169443.6      -14.328432      99           
    623000   1258079        680.55498      1257398.4      0.24549523     221.07925      253.74925      304.58899      296.78651      294.03085      169498.66      28.607839      92           
    624000   1258079        676.58018      1257402.4      0.24549523     219.78804      301.34724      300.28827      297.60723      294.28011      169406.71     -20.989433      97           
    625000   1258080.9      676.28238      1257404.6      0.24549523     219.69129      288.78855      301.99864      295.02232      293.63053      169493.1       25.414121      84           
    626000   1258076.3      681.87997      1257394.4      0.24549523     221.50968      307.86384      302.83503      300.21363      294.28056      169469.17     -10.696209      88           
    627000   1258083.8      684.99474      1257398.8      0.24549523     222.52152      282.06889      303.20878      303.67177      294.98071      169465.86      15.719646      85           
    628000   1258074        676.03836      1257398        0.24549523     219.61202      316.6049       299.04775      298.49042      294.66101      169436.78     -7.1927307      92           
    629000   1258080.5      681.63075      1257398.9      0.24549523     221.42872      294.95574      301.91902      301.73507      293.4249       169463.7       4.6610802      98           
    630000   1258084.2      680.82394      1257403.4      0.24549523     221.16663      257.34581      304.47253      297.05588      294.81346      169453.36      11.40514       96           
    631000   1258087.2      677.73668      1257409.5      0.24549523     220.16373      240.62995      300.34853      299.96272      293.75421      169432.16     -10.645409      92           
    632000   1258072.4      673.41532      1257399        0.24549523     218.75993      254.5388       300.36883      294.60441      292.93491      169490.68      24.581645      87           
    633000   1258081.1      675.10739      1257406        0.24549523     219.3096       266.6688       296.82754      301.47055      294.37481      169436.68     -19.447651      89           
    634000   1258074.2      677.78296      1257396.4      0.24549523     220.17876      277.24778      301.76513      297.1398       294.52615      169465.8       25.937141      87           
    635000   1258081.3      678.86476      1257402.5      0.24549523     220.53018      238.92927      297.27562      305.46847      295.23451      169427.16     -11.323008      77           
    636000   1258090.2      684.83436      1257405.3      0.24549523     222.46942      209.60473      303.83798      303.38019      294.60415      169478.28      17.198713      71           
    637000   1258071.8      673.387        1257398.5      0.24549523     218.75073      237.97586      300.57106      293.96064      294.65411      169474.21      3.7559168      79           
    638000   1258080.9      683.83444      1257397.1      0.24549523     222.14459      273.97164      299.63662      307.82297      294.64881      169425.62     -4.0262236      81           
    639000   1258079.4      680.77243      1257398.6      0.24549523     221.14989      302.92902      304.34113      296.74761      293.99688      169463.43      19.998439      86           
    640000   1258075.2      677.27475      1257398        0.24549523     220.01367      292.59001      299.46115      299.69767      294.79461      169413.46     -18.003143      83           
    641000   1258080.1      681.54287      1257398.5      0.24549523     221.40017      293.24924      302.53242      300.35264      294.49563      169494.34      39.173172      81           
    642000   1258083.9      678.35823      1257405.5      0.24549523     220.36564      292.03389      299.3369       301.25664      294.67985      169443.34     -34.688067      87           
    643000   1258073.1      671.73172      1257401.4      0.24549523     218.21301      275.68323      296.7329       297.36237      294.18473      169471.86      37.179357      81           
    644000   1258072.1      670.48935      1257401.6      0.24549523     217.80942      262.26856      297.5118       294.95985      293.84598      169474.87     -21.338743      88           
    645000   1258071        673.03695      1257398        0.24549523     218.63701      262.48155      296.55197      299.57875      293.63969      169423.59      21.988416      86           
    646000   1258077        681.42533      1257395.5      0.24549523     221.36199      305.4257       300.32825      303.86079      292.76746      169471.93     -8.2112802      89           
    647000   1258069        675.31279      1257393.7      0.24549523     219.37632      349.93896      298.95817      298.23747      290.88445      169453.08      10.689566      94           
    648000   1258079.7      676.0481       1257403.7      0.24549523     219.61519      281.47464      298.13214      301.32721      291.09274      169471.43      2.4539096      85           
    649000   1258075.8      674.77904      1257401.1      0.24549523     219.20293      310.56447      299.66664      296.68515      292.5105       169452.99     -5.9254806      87           
    650000   1258073.7      675.54986      1257398.1      0.24549523     219.45333      270.73035      296.80951      301.91129      294.73695      169475.51      15.822446      95           
    651000   1258082.9      680.3926       1257402.5      0.24549523     221.02651      259.14172      300.83582      301.9966       294.62349      169429.42     -8.3630478      92           
    652000   1258073.2      677.07795      1257396.1      0.24549523     219.94974      295.67663      303.88339      293.16235      293.28162      169440.34      16.179148      99           
    653000   1258083.6      682.91143      1257400.7      0.24549523     221.84475      313.73218      301.70015      303.7539       291.82129      169465.43     -3.0448801      91           
    654000   1258081.8      677.41541      1257404.4      0.24549523     220.05936      334.68699      299.4918       300.07678      291.67482      169474.43      9.0485534      88           
    655000   1258073.5      678.21213      1257395.3      0.24549523     220.31818      318.75852      299.67606      300.83946      292.30651      169459.13      1.6877336      86           
    656000   1258072.1      673.13296      1257399        0.24549523     218.6682       301.58407      295.22771      301.49671      292.45718      169448.99      1.3948219      85           
    657000   1258078.7      678.39982      1257400.3      0.24549523     220.37915      328.97083      299.5775       300.74028      293.5306       169492.94      10.029187      96           
    658000   1258071.2      678.008        1257393.1      0.24549523     220.25186      276.31544      300.81123      298.85603      294.58921      169428.06      2.8603764      90           
    659000   1258074.1      679.83163      1257394.3      0.24549523     220.84427      288.76429      301.39095      299.65742      296.04639      169457.94      3.1819183      86           
    660000   1258074.6      679.50624      1257395.1      0.24549523     220.73857      269.24629      297.7584       305.04954      295.76682      169446.63      0.73900874     86           
    661000   1258081.5      682.71403      1257398.7      0.24549523     221.78062      303.657        299.00639      307.1214       293.8817       169467.58      5.888749       106          
    662000   1258076.8      677.00284      1257399.8      0.24549523     219.92534      276.3291       301.5004       297.09828      292.76434      169435.76      7.2322294      101          
    663000   1258078.2      678.22159      1257400        0.24549523     220.32125      300.80302      301.77732      298.11157      291.56111      169454.19      6.1493163      100          
    664000   1258084.5      682.43662      1257402.1      0.24549523     221.69051      301.16752      299.79334      306.23461      291.73082      169473.1       6.4167332      96           
    665000   1258074.6      674.63909      1257400        0.24549523     219.15747      270.87869      295.37815      303.0676       294.20902      169414.34     -2.6087182      91           
    666000   1258080.1      679.47416      1257400.6      0.24549523     220.72815      272.05753      298.61223      303.66593      295.98665      169502.65      11.828816      93           
    667000   1258073.1      676.46305      1257396.6      0.24549523     219.74998      271.62995      298.97859      299.26744      296.48044      169423.27     -15.131806      93           
    668000   1258070.3      675.90473      1257394.4      0.24549523     219.56861      277.64397      299.77015      296.99947      297.71342      169507.49      24.231569      94           
    669000   1258083.7      680.82521      1257402.9      0.24549523     221.16704      269.28349      301.07834      301.06107      298.07347      169422.37     -16.334756      94           
    670000   1258078        675.62904      1257402.4      0.24549523     219.47906      280.46398      298.9328       297.97523      297.1841       169444.81      21.14406       87           
    671000   1258080.7      678.67763      1257402        0.24549523     220.46939      326.18673      300.61508      298.68508      296.74468      169443.67     -4.4224748      92           
    672000   1258073.6      673.90625      1257399.7      0.24549523     218.9194       326.63079      297.01104      298.64657      295.03509      169436.63      0.57610662     90           
    673000   1258074.2      673.56092      1257400.7      0.24549523     218.80722      289.62696      298.2022       297.76842      292.18691      169483.94      14.487517      93           
    674000   1258073.9      673.26015      1257400.7      0.24549523     218.70952      303.91302      298.6135       296.46444      292.57461      169407.22     -22.167372      93           
    675000   1258073.8      679.19143      1257394.6      0.24549523     220.6363       275.34815      301.45713      299.33024      294.73416      169507.39      36.911928      95           
    676000   1258073.1      677.40681      1257395.7      0.24549523     220.05657      268.8946       299.85956      298.87637      297.50053      169442.01     -21.773508      99           
    677000   1258076.5      675.98718      1257400.6      0.24549523     219.5954       284.36262      300.30255      295.82351      299.11305      169464.73      24.223271      111          
    678000   1258076.3      678.34183      1257398        0.24549523     220.36031      293.17257      298.92268      300.84177      298.49124      169458.57     -7.8751314      100          
    679000   1258084.4      686.37036      1257398.1      0.24549523     222.96839      255.58382      303.71704      304.19931      298.41268      169480.55      4.4253466      113          
    680000   1258077        676.80178      1257400.2      0.24549523     219.86002      272.43163      301.84352      295.04792      298.3016       169434.74      16.550761      113          
    681000   1258082.1      678.76931      1257403.3      0.24549523     220.49918      271.81113      302.18791      296.97269      297.93041      169456.67     -21.334667      109          
    682000   1258087        679.29144      1257407.7      0.24549523     220.66879      305.30051      301.3708       298.73448      296.42841      169467         42.124274      106          
    683000   1258088.7      683.21404      1257405.5      0.24549523     221.94305      309.82472      305.17004      297.84435      295.79228      169418.19     -41.970374      118          
    684000   1258078.7      676.83785      1257401.9      0.24549523     219.87174      287.57115      303.16616      293.51652      295.47227      169489.37      53.038599      119          
    685000   1258078.6      675.45723      1257403.1      0.24549523     219.42324      283.25528      298.31568      299.19531      295.45195      169404.29     -46.769995      116          
    686000   1258075.7      681.01971      1257394.7      0.24549523     221.23022      270.2352       302.11889      300.26634      296.46389      169529.71      39.678221      113          
    687000   1258069.8      674.40906      1257395.3      0.24549523     219.08274      277.58934      301.7378       292.43483      297.11626      169403.22     -16.392534      119          
    688000   1258074        680.30035      1257393.7      0.24549523     220.99654      296.41778      302.89785      297.77616      296.23018      169510.88      17.022248      127          
    689000   1258084.4      674.77811      1257409.6      0.24549523     219.20263      307.4088       299.76729      295.34699      296.91007      169451.6       7.647666       119          
    690000   1258077.5      678.18726      1257399.3      0.24549523     220.3101       324.31278      300.40084      298.29229      296.8574       169405.34     -17.319627      117          
    691000   1258071.3      675.10798      1257396.2      0.24549523     219.30979      299.52339      299.77881      296.18153      295.91268      169484.74      42.158614      120          
    692000   1258064.6      669.34903      1257395.3      0.24549523     217.43898      297.18748      296.04005      295.1392       294.26399      169423.02     -46.387198      111          
    693000   1258069.9      668.68844      1257401.2      0.24549523     217.22439      302.42575      292.41999      299.96622      293.17698      169518.56      62.285655      103          
    694000   1258073.3      674.85315      1257398.5      0.24549523     219.22701      292.61501      296.3326       301.77559      294.22921      169382.81     -54.321554      94           
    695000   1258080.5      679.91106      1257400.6      0.24549523     220.87008      315.72878      299.47678      302.56434      294.74542      169522.56      55.016716      102          
    696000   1258069.6      668.7852       1257400.8      0.24549523     217.25582      300.3688       296.76972      292.8603       296.03254      169418.38     -30.217538      102          
    697000   1258079        685.51943      1257393.5      0.24549523     222.69196      296.0053       303.58075      302.87148      297.50656      169461.76      18.994337      92           
    698000   1258073.7      677.46476      1257396.3      0.24549523     220.07539      329.68163      299.31465      298.83297      297.36551      169460.52      11.678513      104          
    699000   1258083.9      683.79395      1257400.1      0.24549523     222.13144      308.37677      300.21656      305.23938      299.01638      169458.94     -23.479656      97           
    700000   1258076.4      677.46755      1257398.9      0.24549523     220.0763       300.48011      299.16947      299.19007      298.7999       169500.35      49.606169      91           
    701000   1258075.1      672.56009      1257402.5      0.24549523     218.4821       315.89279      298.92631      294.01299      296.12651      169407.32     -55.262923      94           
    702000   1258082.6      678.99436      1257403.6      0.24549523     220.57229      281.23192      300.51007      300.31224      295.16069      169493.37      65.899577      90           
    703000   1258084.6      679.33499      1257405.3      0.24549523     220.68294      293.97857      304.52416      294.77917      293.97184      169399.42     -50.771424      100          
    704000   1258077.6      678.00293      1257399.6      0.24549523     220.25022      296.79576      300.56932      298.99664      294.36878      169465.09      47.759155      93           
    705000   1258084        684.48551      1257399.5      0.24549523     222.35609      311.19631      302.0716       303.93394      296.42047      169421.29     -21.36371       94           
    706000   1258081.9      683.8722       1257398        0.24549523     222.15686      329.20018      302.68363      301.77699      297.23596      169478.46      7.1709498      94           
    707000   1258081.4      683.29253      1257398.1      0.24549523     221.96855      290.17035      302.50823      301.89706      297.26991      169454.98      19.294         95           
    708000   1258077.8      678.35476      1257399.5      0.24549523     220.36451      325.38032      296.7264       303.94577      297.36035      169430.32     -34.489758      93           
    709000   1258076.7      680.58797      1257396.1      0.24549523     221.08997      322.46195      300.35601      301.28994      297.36068      169485.37      61.831909      98           
    710000   1258086.9      685.97111      1257400.9      0.24549523     222.83869      310.36307      306.62369      299.31186      295.10868      169447.74     -63.562117      88           
    711000   1258078.5      676.3274       1257402.2      0.24549523     219.70592      306.93191      296.53297      302.70786      294.89619      169470.56      64.852955      91           
    712000   1258085.4      682.81366      1257402.6      0.24549523     221.81299      293.64557      303.49062      300.31586      295.24525      169452.95     -43.474592      92           
    713000   1258095.5      688.53467      1257407        0.24549523     223.67147      254.12121      304.32362      306.4507       295.96106      169472.14      27.105438      86           
    714000   1258083.2      683.24482      1257399.9      0.24549523     221.95305      267.70237      302.95113      301.37959      297.51755      169441.27      6.3618432      82           
    715000   1258092.9      685.92723      1257407        0.24549523     222.82444      317.75894      301.10863      306.96385      296.89161      169421.45     -28.488422      85           
    716000   1258080.8      680.33605      1257400.5      0.24549523     221.00814      301.99861      299.56973      302.57404      297.02693      169475.97      66.579993      89           
    717000   1258082.9      678.8143       1257404.1      0.24549523     220.51379      308.22226      300.13313      299.84725      296.71667      169443.13     -76.340661      91           
    718000   1258085.3      684.74823      1257400.5      0.24549523     222.44144      287.00607      304.43278      301.60969      294.30239      169477.39      88.563316      79           
    719000   1258076.4      674.9468       1257401.4      0.24549523     219.25743      272.54351      301.51862      294.3783       293.27549      169405.23     -71.015084      74           
    720000   1258078.7      680.42813      1257398.2      0.24549523     221.03805      287.12692      301.4064       301.33621      292.46032      169484.12      62.342836      72           
    721000   1258072.2      675.67853      1257396.5      0.24549523     219.49513      259.96651      296.79985      302.33729      294.02268      169462.3      -25.711491      77           
    722000   1258070.3      670.35102      1257399.9      0.24549523     217.76448      278.80453      294.86165      298.63887      293.38189      169428.63      9.2419815      74           
    723000   1258079        675.39339      1257403.6      0.24549523     219.4025       289.93887      295.00789      304.40747      293.68973      169470.25      28.368381      74           
    724000   1258074.8      679.43657      1257395.4      0.24549523     220.71594      277.77048      300.1141       301.70049      294.21843      169422.96     -44.58652       75           
    725000   1258081.8      682.5705       1257399.3      0.24549523     221.734        318.11129      301.60311      303.21201      292.74573      169490.7       72.17903       81           
    726000   1258075.2      680.04412      1257395.2      0.24549523     220.9133       287.73712      299.06089      304.41968      292.36526      169390.25     -78.162042      84           
    727000   1258081.8      679.47529      1257402.3      0.24549523     220.72851      305.47465      304.00257      296.33076      291.33416      169506.58      91.404611      80           
    728000   1258081.1      678.27912      1257402.8      0.24549523     220.33994      295.44896      299.98089      300.97389      291.47263      169428.07     -76.476532      94           
    729000   1258083        682.23949      1257400.7      0.24549523     221.62647      290.57047      302.34539      302.04895      292.83448      169465.24      64.610133      89           
    730000   1258089        679.62342      1257409.4      0.24549523     220.77664      313.55583      301.93538      298.37903      295.32736      169422.88     -26.625516      91           
    731000   1258086.9      679.11413      1257407.8      0.24549523     220.61119      301.53607      301.51852      298.10957      297.39633      169462.13     -5.1138483      86           
    732000   1258082.2      680.10067      1257402.1      0.24549523     220.93167      251.85003      301.4133       299.53759      299.2041       169461.13      42.178948      83           
    733000   1258086.6      683.33931      1257403.3      0.24549523     221.98375      269.11048      306.61447      295.413        299.94719      169398.88     -53.251792      87           
    734000   1258089        687.75713      1257401.2      0.24549523     223.41888      279.11205      302.03764      307.91031      298.54094      169507.99      66.044857      91           
    735000   1258077        679.32617      1257397.7      0.24549523     220.68007      293.0772       302.09265      298.24519      294.84444      169442.99     -58.299053      93           
    736000   1258080.5      679.71526      1257400.8      0.24549523     220.80647      289.59389      297.64437      306.27741      291.67829      169443.62      47.263622      88           
    737000   1258070.4      671.88959      1257398.5      0.24549523     218.26429      290.11876      298.80629      295.27261      290.38654      169480.44     -20.374982      85           
    738000   1258078.3      679.7059       1257398.6      0.24549523     220.80343      261.98712      305.35751      295.07469      291.55782      169426.93      4.3943541      81           
    739000   1258081.5      674.01868      1257407.5      0.24549523     218.95593      271.83651      297.3529       299.51513      293.35013      169441.2       26.004854      81           
    740000   1258081        678.42379      1257402.5      0.24549523     220.38693      330.63128      298.51767      301.35846      297.01826      169416.11     -33.367877      91           
    741000   1258076.9      674.84754      1257402        0.24549523     219.22518      315.08707      297.29384      298.56559      299.14396      169502.81      57.88429       88           
    742000   1258075.6      672.09803      1257403.5      0.24549523     218.332        316.40306      296.49031      296.19293      299.81034      169454.93     -49.568262      89           
    743000   1258082.6      682.04694      1257400.5      0.24549523     221.56392      321.91619      301.35294      301.34778      298.42542      169475.47      56.558486      88           
    744000   1258084        680.85728      1257403.2      0.24549523     221.17746      309.48716      298.39158      305.308        295.43154      169422.86     -36.772353      89           
    745000   1258076.8      681.04333      1257395.7      0.24549523     221.23789      270.4489       301.97999      301.18167      293.55622      169469.71      24.980976      88           
    746000   1258080.4      678.07261      1257402.4      0.24549523     220.27285      250.09224      301.55458      298.34698      293.75966      169432.35      1.4474944      81           
    747000   1258083.7      673.2763       1257410.5      0.24549523     218.71476      236.55756      297.78953      297.8693       295.27322      169441.43     -8.6442161      80           
    748000   1258092.1      686.57219      1257405.6      0.24549523     223.03395      257.94576      305.4319       302.12963      296.42023      169470.79      30.992676      77           
    749000   1258077.3      675.60461      1257401.7      0.24549523     219.47112      271.96443      299.26761      296.95449      299.18735      169432.37     -31.324298      74           
    750000   1258077.4      680.61172      1257396.8      0.24549523     221.09769      308.9715       300.53822      300.74036      299.36802      169475.51      52.473261      85           
    751000   1258075.8      677.0149       1257398.8      0.24549523     219.92925      285.90603      296.63553      302.82288      298.37417      169395.72     -55.467118      86           
    752000   1258071.6      669.91793      1257401.7      0.24549523     217.62379      290.49265      295.93205      295.43805      296.85487      169504.32      63.726471      86           
    753000   1258081.4      680.99059      1257400.4      0.24549523     221.22076      278.95463      303.8071       297.7375       295.18836      169407.89     -54.285988      84           
    754000   1258073.8      671.75773      1257402.1      0.24549523     218.22145      301.53788      297.79491      295.5375       293.71156      169459.44      45.633234      90           
    755000   1258069.6      674.1279       1257395.5      0.24549523     218.99141      295.50986      298.37356      297.72636      293.65843      169450.48     -14.395528      95           
    756000   1258069.7      678.48194      1257391.2      0.24549523     220.40582      311.04945      302.48481      296.37205      294.77768      169446        -5.2282396      93           
    757000   1258075.9      678.16212      1257397.7      0.24549523     220.30193      289.61303      299.00898      301.05122      296.55651      169493.93      34.317572      85           
    758000   1258080.2      685.80815      1257394.4      0.24549523     222.78576      323.36146      303.93787      302.1659       298.09195      169423.42     -39.223766      85           
    759000   1258073.3      668.91238      1257404.4      0.24549523     217.29714      296.4014       295.95412      293.96144      297.33152      169505.35      64.587121      87           
    760000   1258080.2      679.16545      1257401        0.24549523     220.62787      276.92422      299.8603       301.26593      296.2566       169392.83     -65.541468      93           
    761000   1258070.2      674.81227      1257395.4      0.24549523     219.21373      272.28138      296.21168      301.68947      295.35846      169510.93      76.568534      88           
    762000   1258081.2      675.52385      1257405.7      0.24549523     219.44488      243.55313      298.44891      299.75936      294.84006      169420.96     -56.830507      91           
    763000   1258079.4      679.41913      1257400        0.24549523     220.71027      269.25181      302.34124      298.24982      295.31066      169492.77      45.93886       99           
    764000   1258081.2      680.35197      1257400.8      0.24549523     221.01331      254.98214      301.02988      301.60165      295.11296      169421.34     -15.740613      99           
    765000   1258067.4      677.54542      1257389.9      0.24549523     220.1016       256.20469      300.03432      299.75         294.98043      169441.51     -6.8039704      104          
    766000   1258074.7      677.6048       1257397.1      0.24549523     220.12088      292.31358      299.2492       300.2126       295.64315      169496.46      46.009243      109          
    767000   1258084.9      682.98373      1257401.9      0.24549523     221.86824      275.30014      301.91349      303.26264      294.98743      169387.17     -61.06254       102          
    768000   1258073.2      677.77604      1257395.4      0.24549523     220.17651      291.38813      296.95146      304.23691      294.33472      169495.3       81.569523      102          
    769000   1258083.1      679.7729       1257403.3      0.24549523     220.8252       252.0257       301.09498      300.83018      295.29714      169396.46     -78.472072      101          
    770000   1258080.3      682.05132      1257398.2      0.24549523     221.56534      275.69028      300.52603      303.9305       295.82648      169522.2       82.106719      96           
    771000   1258075        676.54684      1257398.5      0.24549523     219.7772       239.61575      300.7303       296.97477      297.44813      169391.05     -56.309785      94           
    772000   1258075.6      679.11665      1257396.5      0.24549523     220.61201      251.57529      301.93024      297.62296      299.18143      169496.88      43.713961      88           
    773000   1258077.1      675.46646      1257401.6      0.24549523     219.42624      267.33188      298.55319      298.21564      298.28236      169443.55     -14.685436      79           
    774000   1258085.1      684.23135      1257400.9      0.24549523     222.27353      289.86586      303.07566      302.09199      297.6073       169437.91     -4.5203691      78           
    775000   1258081.1      679.90803      1257401.2      0.24549523     220.86909      296.95589      300.13106      301.1867       297.35231      169485.53      37.232159      83           
    776000   1258079.6      679.04255      1257400.5      0.24549523     220.58794      299.81477      302.17285      297.30775      296.25642      169405.65     -51.775306      82           
    777000   1258087.4      685.65655      1257401.7      0.24549523     222.73651      317.67262      303.17108      303.75598      296.07122      169512.98      70.403716      83           
    778000   1258072.3      676.74839      1257395.5      0.24549523     219.84268      270.33072      298.05561      301.08781      296.27328      169374.7      -59.21033       90           
    779000   1258077        679.21374      1257397.7      0.24549523     220.64355      282.31974      299.34881      301.58956      297.85841      169506.53      61.417574      93           
    780000   1258086        685.70144      1257400.3      0.24549523     222.75109      288.85597      302.31729      304.85172      298.39068      169404.4      -44.81589       84           
    781000   1258094        686.31924      1257407.7      0.24549523     222.95178      289.85511      303.35457      303.60899      300.02245      169467.03      34.72271       89           
    782000   1258078.4      678.17433      1257400.2      0.24549523     220.3059       307.14885      297.68752      302.11768      299.24085      169453.09     -8.0986074      86           
    783000   1258079.5      674.19568      1257405.3      0.24549523     219.01343      299.34868      294.18554      302.94814      297.75292      169431.08     -4.2232147      83           
    784000   1258082.9      673.87687      1257409        0.24549523     218.90986      310.01258      298.15987      296.6845       296.89737      169500.44      30.490088      84           
    785000   1258077.1      681.3391       1257395.8      0.24549523     221.33398      327.92132      298.60917      304.42844      298.7915       169398.1      -28.616678      87           
    786000   1258075.8      677.13787      1257398.7      0.24549523     219.9692       301.24665      298.92156      299.30093      298.19726      169518.47      45.370192      86           
    787000   1258082.1      678.39939      1257403.7      0.24549523     220.37901      303.73401      301.78259      296.20435      299.39025      169408.53     -34.620542      96           
    788000   1258080.1      682.83572      1257397.3      0.24549523     221.82016      313.36572      302.98106      299.63604      299.46923      169483.13      43.465984      110          
    789000   1258078.7      680.69251      1257398        0.24549523     221.12393      292.79276      300.74626      300.86207      298.9549       169450.95     -26.711717      94           
    790000   1258085.8      677.09291      1257408.7      0.24549523     219.9546       295.58096      298.83784      299.68413      297.38178      169477.29      22.439039      97           
    791000   1258086        681.81607      1257404.2      0.24549523     221.48892      303.20699      297.92925      306.8192       297.10813      169446.02     -3.9068615      97           
    792000   1258077.4      676.73764      1257400.6      0.24549523     219.83919      274.21583      297.74258      301.31743      297.17559      169457.97      2.8100998      100          
    793000   1258082.8      678.53544      1257404.2      0.24549523     220.4232       265.61259      298.58716      302.26352      297.41464      169456.57      23.879528      93           
    794000   1258078.3      680.07235      1257398.2      0.24549523     220.92247      288.46495      298.56167      304.02707      296.82629      169397.92     -28.737474      102          
    795000   1258085        680.18786      1257404.8      0.24549523     220.95999      298.09194      300.82786      300.51488      297.10624      169482.86      45.380117      99           
    796000   1258076.8      680.98944      1257395.8      0.24549523     221.22039      275.25408      304.89846      295.76212      297.13308      169426.38     -33.948043      106          
    797000   1258078.6      683.24141      1257395.4      0.24549523     221.95194      245.13539      304.24971      299.47774      299.1023       169507.64      39.000687      104          
    798000   1258076.5      683.22169      1257393.2      0.24549523     221.94554      257.44124      300.58108      304.80779      299.12028      169428.73     -24.654547      103          
    799000   1258068.1      680.82436      1257387.3      0.24549523     221.16676      230.78601      300.60304      302.20566      299.34297      169454.04      23.499103      108          
    800000   1258067.4      672.97854      1257394.4      0.24549523     218.61804      256.46899      296.21106      298.96661      298.76556      169418.42     -1.5739518      121          
    801000   1258072.7      674.78313      1257397.9      0.24549523     219.20426      264.11256      296.49757      300.87336      297.83722      169477.7      -4.06956        125          
    802000   1258066.1      674.30325      1257391.8      0.24549523     219.04837      257.70027      299.86619      295.33217      298.18196      169450.96      26.321142      130          
    803000   1258067.5      676.11637      1257391.4      0.24549523     219.63737      271.13943      298.74743      299.45107      296.24501      169423.98     -28.125962      127          
    804000   1258072.8      679.59687      1257393.3      0.24549523     220.76801      266.75945      296.65667      306.42702      298.25133      169469.98      38.566032      132          
    805000   1258073        674.10613      1257398.9      0.24549523     218.98434      269.93684      299.87589      294.63987      298.52144      169388.5      -30.844466      126          
    806000   1258073.6      674.42165      1257399.1      0.24549523     219.08683      281.4104       297.84233      297.72381      299.06946      169507.35      31.758983      118          
    807000   1258073.4      680.47348      1257392.9      0.24549523     221.05278      288.23008      301.61092      299.5898       298.26362      169424.68     -23.117109      122          
    808000   1258074.4      680.13487      1257394.3      0.24549523     220.94278      273.40047      298.52875      303.89982      298.94091      169478.55      29.625058      118          
    809000   1258082.4      685.16657      1257397.2      0.24549523     222.57734      270.49314      305.0974       300.34803      298.38858      169432.97     -18.991829      105          
    810000   1258076.3      673.08244      1257403.2      0.24549523     218.65179      291.67416      296.42629      298.30011      297.92886      169468.01      18.463108      103          
    811000   1258058.8      666.59045      1257392.2      0.24549523     216.54286      270.48559      292.4351       296.65095      297.98563      169437.01      0.16420739     102          
    812000   1258071.6      674.7192       1257396.9      0.24549523     219.18349      293.091        299.70004      295.48962      297.46096      169452.48     -4.4099709      104          
    813000   1258086.1      680.05762      1257406        0.24549523     220.91769      288.28943      297.30532      305.54633      298.15941      169490.86      21.744642      101          
    814000   1258075.4      678.51709      1257396.9      0.24549523     220.41724      295.88897      300.77183      298.06044      299.14268      169402.42     -11.637948      109          
    815000   1258070.8      674.24927      1257396.5      0.24549523     219.03084      309.38085      296.46132      299.28493      298.25226      169470.16      28.25803       117          
    816000   1258075        672.82387      1257402.2      0.24549523     218.56779      286.06852      296.98267      297.26103      297.92013      169422.81     -25.74265       115          
    817000   1258077.9      675.30346      1257402.6      0.24549523     219.37329      275.64963      300.1146       295.42633      299.29748      169475.67      31.590965      115          
    818000   1258076.7      676.47217      1257400.3      0.24549523     219.75295      263.27593      298.98809      298.81907      298.94149      169414.47     -15.131971      105          
    819000   1258071.8      675.78536      1257396        0.24549523     219.52984      307.99109      300.33859      295.43083      298.07022      169485.18      17.266179      107          
    820000   1258082        682.49954      1257399.5      0.24549523     221.71095      318.53795      301.75705      301.50111      297.64718      169481.42     -0.94065112     103          
    821000   1258074        674.36568      1257399.7      0.24549523     219.06865      254.71546      297.02621      299.16371      299.32296      169453.07      5.2885221      97           
    822000   1258085        682.10583      1257402.9      0.24549523     221.58305      285.63649      302.34325      300.1737       299.47675      169437.26      6.5201462      98           
    823000   1258080.7      684.81221      1257395.9      0.24549523     222.46222      293.71104      302.80512      302.72921      299.3112       169440.7       0.383745       101          
    824000   1258075.3      679.71397      1257395.6      0.24549523     220.80605      330.1476       299.69977      300.49638      299.55632      169465.78      13.094744      99           
    825000   1258080.1      675.24411      1257404.9      0.24549523     219.35401      330.39443      298.37144      296.88011      300.35216      169418.17     -8.9186883      85           
    826000   1258078.6      679.31179      1257399.3      0.24549523     220.6754       296.29916      297.92283      302.94684      300.4695       169468.42      18.884788      89           
    827000   1258081.4      680.75587      1257400.7      0.24549523     221.14451      302.49077      301.54224      299.13706      300.61531      169454.43     -11.451208      81           
    828000   1258076.7      679.74641      1257397        0.24549523     220.81659      313.32436      299.53134      301.46519      298.23206      169462.31      16.205403      73           
    829000   1258085        685.53088      1257399.5      0.24549523     222.69568      299.03353      301.46144      305.60002      299.11979      169444.17     -4.5444124      84           
    830000   1258076        678.32976      1257397.7      0.24549523     220.35639      326.31747      300.02397      299.02845      297.31924      169462.09      2.3172308      84           
    831000   1258078.4      679.5574       1257398.9      0.24549523     220.75519      312.28643      302.39924      297.14144      297.29906      169447.82      17.937898      90           
    832000   1258078        682.21197      1257395.8      0.24549523     221.61753      314.69571      300.53758      303.09214      297.53778      169437.33     -22.8422        96           
    833000   1258088.2      686.46569      1257401.7      0.24549523     222.99936      308.05634      304.40045      302.27601      298.77472      169488.37      40.986811      101          
    834000   1258077.4      679.39417      1257398        0.24549523     220.70216      334.61122      300.99424      298.42733      297.8518       169414.47     -35.645714      118          
    835000   1258079.7      681.61257      1257398.1      0.24549523     221.42281      290.85839      301.54252      301.05111      298.15023      169469.02      42.093578      105          
    836000   1258086.6      681.99172      1257404.6      0.24549523     221.54598      302.72447      299.69777      304.45229      296.66156      169448.43     -21.413129      108          
    837000   1258076.6      672.47889      1257404.1      0.24549523     218.45573      290.56438      297.71589      295.72576      297.58971      169479.35      16.038506      103          
    838000   1258090.9      686.38943      1257404.5      0.24549523     222.97458      279.10238      305.45783      301.21169      297.96029      169454.67     -1.6483265      101          
    839000   1258083.2      679.91922      1257403.3      0.24549523     220.87273      296.72796      300.99191      299.58596      298.57601      169451.01      4.1922059      100          
    840000   1258076.9      675.11567      1257401.8      0.24549523     219.31229      333.01982      297.90185      297.8255       298.3546       169459         9.5262046      98           
    841000   1258076.9      680.72962      1257396.2      0.24549523     221.13599      295.89849      301.28743      299.71056      300.11947      169450.96     -7.5200876      92           
    842000   1258077.5      681.11438      1257396.4      0.24549523     221.26098      320.55328      297.91272      304.84742      300.30707      169435.51      15.719923      95           
    843000   1258073.9      672.53724      1257401.4      0.24549523     218.47468      294.16637      297.92241      295.1449       298.56181      169484.03     -3.5952748      86           
    844000   1258079.2      680.87224      1257398.3      0.24549523     221.18232      269.71508      300.48675      301.91168      298.57264      169441.98      9.4249124      93           
    845000   1258084.2      683.7993       1257400.4      0.24549523     222.13318      281.57308      301.18568      304.35409      298.4293       169471.35      0.49447175     104          
    846000   1258083.1      678.95864      1257404.2      0.24549523     220.56068      313.36511      298.24032      302.32655      298.22628      169451.27      6.5542673      102          
    847000   1258069.8      673.54222      1257396.3      0.24549523     218.80115      279.62169      299.06825      294.92679      298.5911       169444.48     -4.8292561      108          
    848000   1258072.2      679.30609      1257392.9      0.24549523     220.67355      250.43017      302.01241      297.98378      298.79146      169483.55      18.349397      102          
    849000   1258082.6      682.45224      1257400.1      0.24549523     221.69558      323.16429      301.66114      300.9104       299.78435      169426.2      -11.098902      102          
    850000   1258079.8      679.76712      1257400        0.24549523     220.82332      305.55752      300.58877      299.33107      300.61401      169476.8       28.27549       94           
    851000   1258077.2      680.36702      1257396.8      0.24549523     221.01819      298.19586      301.95906      298.06853      300.97477      169440.59     -20.458338      105          
    852000   1258085.6      682.58638      1257403        0.24549523     221.73916      259.3401       299.85727      304.51789      300.80497      169456.29      26.023191      95           
    853000   1258080        680.48103      1257399.5      0.24549523     221.05523      291.18877      303.2103       296.70186      299.6189       169433.79     -14.218827      97           
    854000   1258080.3      674.45549      1257405.8      0.24549523     219.09783      249.30374      297.68525      298.58449      298.49765      169478.68      17.061662      97           
    855000   1258080.3      677.27681      1257403        0.24549523     220.01434      261.4825       295.67577      305.23048      297.17798      169470.63     -9.8008944      97           
    856000   1258075.5      674.90093      1257400.6      0.24549523     219.24253      266.02028      298.49747      297.65127      298.59958      169424.04      5.0811753      103          
    857000   1258084.2      680.74356      1257403.5      0.24549523     221.14052      266.15549      301.61029      299.64111      300.74786      169462.45      5.6410156      112          
    858000   1258072.4      676.55921      1257395.9      0.24549523     219.78122      340.3398       299.42686      296.10794      302.09939      169463.16     -4.4471845      121          
    859000   1258085.2      684.83043      1257400.4      0.24549523     222.46814      315.26641      306.32184      296.20654      302.66823      169461.84      21.410595      113          
    860000   1258075.7      677.53359      1257398.2      0.24549523     220.09775      308.58207      301.10183      294.9274       303.5785       169426.11     -14.325428      116          
    861000   1258078.5      679.61821      1257398.9      0.24549523     220.77494      304.63661      299.94379      299.62225      302.50716      169490.31      24.00133       113          
    862000   1258075        679.17796      1257395.8      0.24549523     220.63193      319.94657      299.41191      300.69742      298.5188       169420.86     -9.30006        101          
    863000   1258078.4      676.99369      1257401.4      0.24549523     219.92237      283.09965      300.23575      298.25095      295.14615      169457.26      13.892281      101          
    864000   1258071.2      670.44161      1257400.8      0.24549523     217.79391      263.20751      296.46146      296.61479      293.65908      169445.44     -8.0897735      108          
    865000   1258079        680.4281       1257398.5      0.24549523     221.03804      297.70946      298.08718      305.59222      294.67091      169457.28      12.373023      117          
    866000   1258074.5      671.42436      1257403.1      0.24549523     218.11316      278.62315      297.44911      294.84726      298.34031      169443.29      2.6528451      110          
    867000   1258079.7      678.88437      1257400.8      0.24549523     220.53655      287.10615      303.61509      294.42165      298.98593      169452.63     -3.9842061      106          
    868000   1258070.1      674.33734      1257395.8      0.24549523     219.05944      320.51514      296.98844      297.7832       300.68114      169489.74      21.840797      109          
    869000   1258082.4      680.70351      1257401.7      0.24549523     221.12751      294.97012      299.46784      302.30398      300.73518      169421.39     -18.53362       106          
    870000   1258084.1      688.25588      1257395.9      0.24549523     223.5809       282.62569      303.84742      305.41013      299.96562      169464.01      25.784072      105          
    871000   1258078.3      676.08068      1257402.2      0.24549523     219.62577      301.01057      298.27565      299.00485      298.11973      169471.01     -19.444781      100          
    872000   1258082.5      677.59171      1257404.9      0.24549523     220.11663      283.14265      300.8233       297.50171      297.51586      169446.59      19.156552      110          
    873000   1258076.8      677.61408      1257399.1      0.24549523     220.1239       301.05895      301.48767      296.78717      295.37326      169443.2      -1.63846        109          
    874000   1258077.1      681.709        1257395.4      0.24549523     221.45414      294.80835      302.90399      299.88682      294.78676      169458.11     -3.9852095      103          
    875000   1258087.4      680.16409      1257407.3      0.24549523     220.95227      301.02577      302.11817      298.69289      296.42026      169449.83      13.918575      105          
    876000   1258087.4      679.88747      1257407.5      0.24549523     220.86241      281.78642      300.5892       300.44237      298.23532      169430.57     -17.138121      101          
    877000   1258076        684.47851      1257391.5      0.24549523     222.35382      268.47207      302.97967      301.83894      301.86494      169476.29      30.194088      104          
    878000   1258074        679.06456      1257395        0.24549523     220.59509      276.58231      295.74841      306.14185      301.19141      169449.8      -20.231829      112          
    879000   1258076.7      679.21461      1257397.5      0.24549523     220.64383      280.2548       297.75542      303.26313      300.95354      169452.12      23.9001        114          
    880000   1258074.3      678.19126      1257396.2      0.24549523     220.3114       284.14691      300.55135      298.43267      298.20781      169432.15     -11.665851      106          
    881000   1258070.7      672.66723      1257398        0.24549523     218.51691      294.63374      297.11983      297.10824      296.2719       169468.85      12.36357       101          
    882000   1258080.6      678.33679      1257402.2      0.24549523     220.35867      287.15519      299.4709       301.02774      295.02218      169443.81     -6.634318       106          
    883000   1258084.9      681.51821      1257403.4      0.24549523     221.39216      316.40012      301.42945      301.56053      294.80223      169456.65      10.002982      107          
    884000   1258076.3      676.27828      1257400        0.24549523     219.68996      315.2913       299.92118      297.3076       295.20457      169452.58      5.6139953      104          
    885000   1258073.3      674.50415      1257398.8      0.24549523     219.11363      286.05272      300.03546      294.99611      296.88244      169459.46     -3.903902       104          
    886000   1258086.4      681.43875      1257405        0.24549523     221.36635      265.58385      302.23919      300.11994      298.48066      169435.8       18.531218      105          
    887000   1258081.3      678.51263      1257402.8      0.24549523     220.41579      268.2639       300.24103      299.43106      298.73099      169459.28     -10.371276      108          
    888000   1258079.2      682.19597      1257397        0.24549523     221.61233      288.5497       304.64645      297.40339      297.15489      169449.09      12.500542      113          
    889000   1258087.2      682.42804      1257404.8      0.24549523     221.68772      297.09742      301.84168      301.5292       298.05018      169457.25      0.24587574     118          
    890000   1258079.6      679.0697       1257400.5      0.24549523     220.59676      305.12365      300.811        298.59549      298.83943      169472.61      2.6042463      116          
    891000   1258080.5      678.43336      1257402.1      0.24549523     220.39004      288.6647       298.17029      302.4595       297.32436      169440.06      18.358499      113          
    892000   1258071.7      671.63692      1257400        0.24549523     218.18221      277.23898      297.82425      294.81098      297.50471      169470.97     -20.03468       117          
    893000   1258078.5      677.99536      1257400.5      0.24549523     220.24776      241.89367      299.55761      299.88909      300.21711      169471.97      35.360422      109          
    894000   1258082.5      677.06452      1257405.5      0.24549523     219.94537      239.69419      298.99166      299.7332       299.91124      169422.69     -27.701081      111          
    895000   1258073        676.09082      1257396.9      0.24549523     219.62907      235.93292      295.93189      303.11572      300.33661      169441.16      28.016566      111          
    896000   1258075.2      676.92442      1257398.3      0.24549523     219.89986      234.60458      298.71277      299.6928       301.21135      169472.69     -12.184317      106          
    897000   1258076.5      680.95828      1257395.5      0.24549523     221.21027      261.82358      299.25453      303.26473      301.66558      169445.59      9.0603298      109          
    898000   1258070.9      676.34714      1257394.5      0.24549523     219.71233      271.05098      298.70693      298.40456      301.3074       169450.57      5.1406982      109          
    899000   1258080.7      675.6817       1257405        0.24549523     219.49616      232.58667      298.4883       298.97792      299.5476       169450.37     -10.66833       108          
    900000   1258083.6      679.46824      1257404.2      0.24549523     220.72623      250.94398      302.12568      298.60319      296.58438      169454.73      26.437094      104          
    901000   1258092        681.76431      1257410.2      0.24549523     221.47211      274.08163      302.18101      301.021        296.38493      169425.79     -30.513906      105          
    902000   1258088.2      681.729        1257406.5      0.24549523     221.46064      308.04244      300.93153      302.0648       297.21739      169445.89      37.611897      111          
    903000   1258080.7      687.0786       1257393.6      0.24549523     223.19846      297.62761      305.87878      301.17345      298.01986      169474.6      -26.681729      115          
    904000   1258081.2      678.81835      1257402.4      0.24549523     220.51511      282.68351      301.59358      297.88977      297.33071      169410.2       25.628821      105          
    905000   1258081.7      682.31501      1257399.4      0.24549523     221.651        292.76011      299.50254      304.88893      298.39995      169480.7      -5.8223394      107          
    906000   1258081.7      676.56657      1257405.1      0.24549523     219.78361      281.93819      297.33482      301.6281       296.99365      169429.48      11.652329      105          
    907000   1258087.2      684.61004      1257402.6      0.24549523     222.39655      284.41122      304.98604      299.66187      298.11302      169449.92     -4.527002       105          
    908000   1258084.3      681.65767      1257402.6      0.24549523     221.43746      285.31942      302.85721      299.2502       298.03041      169449.94      5.6419174      104          
    909000   1258080.6      680.68824      1257399.9      0.24549523     221.12254      307.34741      299.93907      302.1165       298.33589      169460.03      2.2261573      99           
    910000   1258083.1      685.63927      1257397.5      0.24549523     222.73089      297.08684      303.83913      302.57122      297.60194      169454.43      9.8467973      108          
    911000   1258087.5      685.13531      1257402.3      0.24549523     222.56718      269.21894      302.7267       303.4843       299.95304      169417.03     -5.1013914      107          
    912000   1258078        679.32159      1257398.7      0.24549523     220.67859      268.54149      301.03327      298.7849       300.39848      169488.89      12.263536      107          
    913000   1258090.7      684.24479      1257406.5      0.24549523     222.27789      267.97734      302.53203      302.87822      299.30341      169457.25      1.1206674      106          
    914000   1258083.3      680.55147      1257402.8      0.24549523     221.07811      250.98116      301.70118      299.37754      300.92737      169449.89     -0.021182431    98           
    915000   1258075.8      681.33292      1257394.5      0.24549523     221.33197      282.74486      300.29416      302.28977      299.6736       169466.14      13.527643      95           
    916000   1258076.1      680.97847      1257395.2      0.24549523     221.21682      288.17064      300.59544      301.82475      297.80764      169445.91     -2.2389355      101          
    917000   1258079        678.76368      1257400.2      0.24549523     220.49735      300.1242       298.73411      301.99658      296.72494      169444.28      7.4279963      103          
    918000   1258067.6      675.73829      1257391.9      0.24549523     219.51455      303.42403      295.91459      302.37495      297.08366      169454.68     -0.30531809     97           
    919000   1258068.4      667.62418      1257400.8      0.24549523     216.87867      300.69526      297.92013      289.3282       297.49341      169468.02      3.8573464      92           
    920000   1258084.1      681.11076      1257403        0.24549523     221.2598       319.06067      299.99051      302.47077      297.75623      169449.08      5.0518227      86           
    921000   1258075.6      676.58113      1257399        0.24549523     219.78834      353.65874      298.34559      298.38833      299.56484      169424.84      2.5815112      87           
    922000   1258085        679.01904      1257406        0.24549523     220.5803       353.99881      296.22315      304.39175      300.18975      169439.52      5.1903038      92           
    923000   1258086.2      682.02316      1257404.2      0.24549523     221.55619      335.70687      303.34815      297.29351      301.34222      169474.62     -2.0462322      98           
    924000   1258072.5      673.77253      1257398.7      0.24549523     218.87597      306.49654      299.8359       293.11691      300.43807      169432.17      7.4706498      102          
    925000   1258078.6      680.56189      1257398        0.24549523     221.0815       319.68383      298.15468      303.97381      299.70624      169469.83     -4.2604713      103          
    926000   1258084.2      681.89358      1257402.3      0.24549523     221.5141       297.88649      298.73295      305.40227      298.54189      169470.39      14.278291      96           
    927000   1258085.8      681.53648      1257404.3      0.24549523     221.3981       296.98918      304.66122      296.20647      297.98719      169422.56     -1.0228107      95           
    928000   1258092        681.38868      1257410.7      0.24549523     221.35008      309.9213       297.76927      306.08853      298.27782      169443.5       3.0998098      96           
    929000   1258082.3      675.07395      1257407.2      0.24549523     219.29873      269.44392      297.60909      298.77893      300.18447      169449.62      8.5298952      100          
    930000   1258087.9      679.59909      1257408.3      0.24549523     220.76873      260.4452       302.18295      297.30892      301.22449      169446.38     -6.5097019      106          
    931000   1258081.3      682.1293       1257399.2      0.24549523     221.59067      282.28362      303.11981      298.80233      300.60138      169438.51      16.350504      103          
    932000   1258085        683.58781      1257401.5      0.24549523     222.06447      290.7817       302.2547       301.68078      300.8384       169476.19     -4.1967285      93           
    933000   1258081.2      680.36309      1257400.9      0.24549523     221.01692      323.92586      301.88452      297.97288      300.02685      169470.26      14.000067      101          
    934000   1258085.6      683.44117      1257402.2      0.24549523     222.01684      298.96155      305.40424      297.23031      298.63003      169433.04     -4.6265087      104          
    935000   1258085.9      676.6562       1257409.2      0.24549523     219.81273      317.85471      298.81073      298.68203      297.94562      169428.8       9.7902851      95           
    936000   1258076.9      678.15057      1257398.8      0.24549523     220.29818      318.04989      300.95649      297.43987      297.24444      169473.01      0.35795873     98           
    937000   1258073.4      671.366        1257402        0.24549523     218.0942       305.1738       298.3743       292.68123      299.35605      169423.81      4.8476683      94           
    938000   1258066.3      670.72046      1257395.6      0.24549523     217.8845       345.43558      293.83721      297.95377      299.41238      169458.73      5.816817       98           
    939000   1258073.3      676.66847      1257396.6      0.24549523     219.81672      329.75193      297.28198      300.46666      299.5381       169460.3      -5.4423237      85           
    940000   1258072        676.53755      1257395.5      0.24549523     219.77419      335.79822      295.77812      302.56776      299.18929      169470.57      14.221167      82           
    941000   1258081.8      682.11633      1257399.7      0.24549523     221.58646      316.41548      298.16435      306.45721      297.77833      169417.35     -3.4895329      84           
    942000   1258082.5      682.83983      1257399.6      0.24549523     221.82149      317.12653      301.28181      302.89288      296.8055       169469.08      11.110205      99           
    943000   1258078.8      677.17204      1257401.6      0.24549523     219.9803       282.16025      300.4775       297.57657      297.06104      169477.97     -5.2807644      85           
    944000   1258081.7      673.57423      1257408.1      0.24549523     218.81155      266.20387      296.80171      298.58087      298.31003      169443.72      12.419245      89           
    945000   1258076.8      678.46713      1257398.4      0.24549523     220.40101      277.90522      300.15481      299.52936      297.76552      169453.34     -8.0693641      87           
    946000   1258076.2      669.33994      1257406.8      0.24549523     217.43603      315.03867      292.0423       299.52273      299.47158      169483.78      16.714644      82           
    947000   1258078.6      676.64637      1257401.9      0.24549523     219.80954      288.64719      295.72315      302.77956      301.92853      169443.21      0.26055155     75           
    948000   1258068.6      675.99571      1257392.6      0.24549523     219.59817      273.86956      298.63434      297.25288      303.47892      169449.67      1.5552617      81           
    949000   1258081.5      678.28347      1257403.2      0.24549523     220.34135      295.06394      297.81856      300.92999      303.75544      169449.55      15.293522      76           
    950000   1258070.2      681.03615      1257389.2      0.24549523     221.23556      296.33628      300.51969      300.35044      303.53094      169478.08     -0.67688033     89           
    951000   1258075.4      679.77338      1257395.6      0.24549523     220.82535      262.68358      302.40326      296.19498      304.25742      169437.02      2.2880205      82           
    952000   1258078.7      676.35031      1257402.3      0.24549523     219.71336      286.18177      297.64261      299.49045      301.99507      169465.33      7.0367322      87           
    953000   1258081.4      678.37956      1257403.1      0.24549523     220.37256      308.62985      297.26238      302.47623      301.03773      169446.99      4.0627343      89           
    954000   1258067.4      670.8233       1257396.6      0.24549523     217.9179       256.14388      294.83075      297.0991       302.60353      169457.12     -3.1682095      81           
    955000   1258076.8      676.47706      1257400.4      0.24549523     219.75454      277.58155      297.64835      299.1          304.21713      169463.36      22.475449      79           
    956000   1258080.6      686.42562      1257394.2      0.24549523     222.98634      284.26869      304.49248      300.82952      304.7624       169452.25     -22.588396      85           
    957000   1258080.6      680.25976      1257400.3      0.24549523     220.98335      281.43132      302.03398      296.42436      306.74264      169504.31      38.209165      86           
    958000   1258084.6      680.71361      1257403.9      0.24549523     221.13078      263.10798      298.91806      301.86051      307.0004       169424.52     -30.801202      83           
    959000   1258079.6      684.4591       1257395.1      0.24549523     222.34751      302.52438      299.15285      305.74532      306.46767      169479.65      32.459189      88           
    960000   1258074.9      679.52006      1257395.4      0.24549523     220.74306      334.96528      298.27256      300.98779      304.76234      169412.84     -6.9716609      91           
    961000   1258076.3      674.38885      1257401.9      0.24549523     219.07618      332.1151       293.66219      301.79749      304.22164      169483.26      2.4752729      91           
    962000   1258082.7      680.99456      1257401.7      0.24549523     221.22205      270.77112      299.23308      302.33438      304.55809      169458.78      25.78882       92           
    963000   1258089.1      686.1912       1257402.9      0.24549523     222.91019      258.63919      299.68161      308.39976      303.75608      169431.6      -26.400669      90           
    964000   1258075.5      680.98708      1257394.5      0.24549523     221.21962      266.5616       302.86679      296.5961       305.41091      169475.61      40.773732      97           
    965000   1258083        682.48632      1257400.5      0.24549523     221.70665      241.56219      299.48532      304.05751      305.15104      169413.82     -37.524304      88           
    966000   1258077.2      672.36612      1257404.8      0.24549523     218.41909      280.52277      295.97405      296.46644      304.69606      169478.96      44.330397      90           
    967000   1258088.6      683.81834      1257404.8      0.24549523     222.13936      311.23857      300.3166       303.33103      305.50977      169413.56     -25.807703      100          
    968000   1258075        679.51735      1257395.5      0.24549523     220.74218      336.89042      298.66407      300.16964      305.28059      169482.83      28.344293      103          
    969000   1258079.4      675.78294      1257403.6      0.24549523     219.52905      320.69588      296.15009      299.44664      305.97382      169459.18     -8.0677766      101          
    970000   1258080.4      677.41818      1257403        0.24549523     220.06026      295.9199       296.74906      300.60401      307.29826      169448.74      6.7694094      100          
    971000   1258087.2      688.05948      1257399.2      0.24549523     223.5171       293.58123      302.2025       305.63608      306.78108      169446.06      13.302982      93           
    972000   1258079.5      676.63408      1257402.9      0.24549523     219.80554      304.66965      298.40798      297.37914      305.84068      169439.31     -14.624725      80           
    973000   1258082.5      680.83133      1257401.7      0.24549523     221.16903      309.17739      300.1725       299.76475      306.08543      169475.98      31.863042      79           
    974000   1258082.9      677.81104      1257405.1      0.24549523     220.18788      300.23565      302.31105      292.9384       306.11544      169414.27     -24.65437       81           
    975000   1258083        675.92553      1257407.1      0.24549523     219.57537      269.80522      295.67775      300.582        307.48341      169464.86      36.141741      75           
    976000   1258075.5      675.94261      1257399.6      0.24549523     219.58092      301.06966      295.63671      300.11902      308.18721      169442.6      -25.537309      85           
    977000   1258075.6      674.47979      1257401.1      0.24549523     219.10572      272.4796       299.62232      292.49199      308.83874      169477.55      25.070626      78           
    978000   1258078.5      678.02513      1257400.4      0.24549523     220.25743      268.33027      297.12552      300.73732      308.56849      169427.13     -10.114159      79           
    979000   1258075.5      680.59252      1257394.9      0.24549523     221.09145      245.89029      299.77341      300.61939      307.07623      169473.03      15.997037      82           
    980000   1258078.3      676.27124      1257402.1      0.24549523     219.68768      262.20559      297.73198      298.28311      306.66532      169465.74      6.4348276      83           
    981000   1258081.1      682.1017       1257399        0.24549523     221.58171      253.15545      299.84391      302.24248      307.50283      169436.85     -8.3057871      91           
    982000   1258080.1      685.35279      1257394.8      0.24549523     222.63783      303.897        300.19488      305.35555      306.20135      169442.49      20.120539      98           
    983000   1258075.9      678.43244      1257397.4      0.24549523     220.38974      287.1574       298.41944      299.57621      306.74332      169436.74     -19.071304      88           
    984000   1258077.7      682.52133      1257395.2      0.24549523     221.71803      312.02717      299.13839      303.19665      306.67124      169478.99      25.670809      90           
    985000   1258085.9      686.13525      1257399.8      0.24549523     222.89201      311.12446      303.02907      301.40963      308.15962      169434.55     -13.562821      79           
    986000   1258075.1      676.24556      1257398.8      0.24549523     219.67933      278.10322      293.4241       303.82337      309.2098       169452         23.521871      79           
    987000   1258073.9      675.16075      1257398.8      0.24549523     219.32693      286.12001      296.34745      298.35149      307.80799      169479.96     -12.04917       74           
    988000   1258089.7      684.4371       1257405.3      0.24549523     222.34037      313.80413      301.88686      301.48937      306.40296      169434.06      13.419092      69           
    989000   1258081.4      681.86202      1257399.5      0.24549523     221.50385      285.61825      300.48923      300.90459      305.81434      169463.09     -3.2566618      74           
    990000   1258080.6      684.01263      1257396.6      0.24549523     222.20248      298.49664      302.09711      300.89801      306.13271      169411.46      0.12502493     76           
    991000   1258077.8      680.78139      1257397        0.24549523     221.1528       294.35796      298.60379      301.80672      307.6163       169443.37      8.5981882      73           
    992000   1258089.5      685.8804       1257403.6      0.24549523     222.80922      322.33297      301.89678      302.52793      308.60435      169466.89      0.29081976     80           
    993000   1258080.1      682.80143      1257397.3      0.24549523     221.80902      309.72949      301.72875      298.59315      310.72933      169417.17      0.72596448     76           
    994000   1258075.3      677.2022       1257398.1      0.24549523     219.9901       303.83966      296.79521      299.27773      310.45539      169467.29      10.484152      81           
    995000   1258083.7      682.74837      1257400.9      0.24549523     221.79178      269.09768      298.33972      304.13076      310.75108      169456.42     -5.1963303      80           
    996000   1258082.4      681.14418      1257401.3      0.24549523     221.27066      289.36406      298.72151      301.61809      309.69804      169462.19      21.484375      82           
    997000   1258080.9      682.81441      1257398.1      0.24549523     221.81324      234.98936      302.12753      299.96296      307.07437      169410.22     -20.204753      83           
    998000   1258084.7      678.8029       1257405.9      0.24549523     220.51009      264.69643      301.5781       295.72622      306.09433      169489.66      27.954644      85           
    999000   1258081.6      683.47499      1257398.1      0.24549523     222.02782      293.2602       302.47111      300.0089       305.61819      169462.72     -14.989012      92           
   1000000   1258084.8      686.22858      1257398.6      0.24549523     222.92233      312.66747      300.12704      306.06724      307.1744       169439.2       17.513982      94           
   1001000   1258083.2      685.32645      1257397.8      0.24549523     222.62927      330.18214      300.10551      304.51602      308.24165      169464.07     -2.2633865      90           
   1002000   1258085.1      689.76862      1257395.3      0.24549523     224.07232      307.28211      300.93826      308.55375      310.02341      169413.03     -3.3516399      99           
   1003000   1258081.2      683.30957      1257397.8      0.24549523     221.97409      292.78223      299.60922      302.62484      310.88193      169455.29      29.192999      96           
   1004000   1258080.5      683.94525      1257396.5      0.24549523     222.18059      274.91937      302.62091      299.25839      310.37423      169429.25     -34.348874      92           
   1005000   1258076.4      679.42618      1257396.9      0.24549523     220.71256      242.60163      298.7656       300.36006      308.94465      169508.96      46.740876      97           
   1006000   1258080.9      678.75971      1257402.1      0.24549523     220.49606      264.30499      300.15515      298.02448      306.03916      169420.78     -37.353147      97           
   1007000   1258089.8      686.29268      1257403.5      0.24549523     222.94315      291.75587      301.14879      305.30953      305.91291      169473.02      37.729848      102          
   1008000   1258080.3      676.20308      1257404.1      0.24549523     219.66553      332.53528      296.14358      299.72375      305.98269      169426.57     -18.292799      114          
   1009000   1258077.4      679.807        1257397.6      0.24549523     220.83627      319.58464      302.22192      294.6839       308.10488      169448.02      8.6942428      116          
   1010000   1258084.3      680.21889      1257404.1      0.24549523     220.97008      321.62826      300.96722      296.38882      310.58007      169430.09      16.629128      118          
   1011000   1258083.2      682.70008      1257400.5      0.24549523     221.77609      335.14168      302.0133       297.25596      311.87426      169439.65     -24.679402      123          
   1012000   1258069.7      680.76323      1257389        0.24549523     221.1469       305.35711      297.90665      301.09521      313.89023      169510.56      40.846441      116          
   1013000   1258083.3      685.95139      1257397.4      0.24549523     222.83228      258.32413      303.47476      300.59669      311.45258      169386.81     -40.632967      116          
   1014000   1258082.9      678.68027      1257404.2      0.24549523     220.47025      292.30261      300.53674      296.39002      307.81765      169484.87      51.311867      109          
   1015000   1258080.5      679.01532      1257401.5      0.24549523     220.57909      281.9887       296.17816      304.4067       304.47067      169432.83     -39.274771      106          
   1016000   1258079.4      678.64763      1257400.8      0.24549523     220.45965      288.68091      296.54963      303.32255      304.18178      169485.48      39.347198      106          
   1017000   1258080.6      678.33926      1257402.3      0.24549523     220.35948      309.31438      301.34429      295.20806      305.49531      169437.92     -24.296045      122          
   1018000   1258087.9      683.24324      1257404.6      0.24549523     221.95254      285.61119      302.33162      299.14404      309.24136      169450.06      21.558842      117          
   1019000   1258078        680.28368      1257397.8      0.24549523     220.99112      301.0239       298.4808       300.37945      311.2972       169460.65     -2.959547       104          
   1020000   1258079.5      679.51724      1257400        0.24549523     220.74214      312.15975      298.51527      299.14141      311.52843      169451.99      1.8583085      106          
   1021000   1258088.6      686.10631      1257402.5      0.24549523     222.88261      290.49496      303.81434      299.68777      311.32851      169480.91      8.2503925      106          
   1022000   1258081.1      680.38692      1257400.8      0.24549523     221.02466      284.39948      298.68433      301.47649      307.47114      169423.59     -8.9864539      102          
   1023000   1258088.5      684.10043      1257404.4      0.24549523     222.231        279.60927      304.85061      298.31311      302.0442       169464.6       24.754673      111          
   1024000   1258088.9      685.77953      1257403.1      0.24549523     222.77646      272.32525      301.51327      306.15602      299.49498      169437.21     -17.499123      103          
   1025000   1258084        679.82999      1257404.1      0.24549523     220.84374      262.34436      301.58418      298.45246      301.30654      169464.51      24.065555      108          
   1026000   1258071.4      675.91169      1257395.4      0.24549523     219.57088      287.83592      300.8108       293.95551      302.94602      169445.7      -12.90678       115          
   1027000   1258082.9      679.07685      1257403.8      0.24549523     220.59908      276.67291      300.64813      297.56002      305.57919      169469.2       14.920818      107          
   1028000   1258077.2      682.18071      1257395        0.24549523     221.60738      294.50427      299.40378      302.57819      307.55619      169447.33     -7.7115836      118          
   1029000   1258073.6      673.12817      1257400.5      0.24549523     218.66664      292.6416       294.59781      298.30209      308.81439      169441.05      18.750319      116          
   1030000   1258079.2      682.4214       1257396.8      0.24549523     221.68556      295.97039      299.28218      302.90952      307.50701      169478.66     -3.3546426      116          
   1031000   1258082        681.79402      1257400.2      0.24549523     221.48176      275.5431       301.65317      299.62263      304.83004      169427.48      1.5554441      112          
   1032000   1258083.5      680.84121      1257402.6      0.24549523     221.17224      280.37299      299.98645      302.13737      300.0706       169484.55      9.1105691      114          
   1033000   1258079.6      673.17076      1257406.5      0.24549523     218.68048      272.08805      298.48539      295.66723      297.86613      169428.44     -3.8020717      112          
   1034000   1258081.2      680.24159      1257401        0.24549523     220.97745      271.80851      300.54461      301.18429      298.15051      169500.3       12.452598      100          
   1035000   1258087.2      683.70704      1257403.5      0.24549523     222.10321      301.52047      299.6258       305.7693       300.16359      169434.1      -9.6792813      103          
   1036000   1258076.2      674.61122      1257401.6      0.24549523     219.14842      311.97727      298.66293      294.77         304.40696      169475.57      20.634374      104          
   1037000   1258084        680.40585      1257403.6      0.24549523     221.03081      342.46745      299.51294      299.57423      306.67444      169460.83     -11.936961      92           
   1038000   1258065.8      672.63148      1257393.1      0.24549523     218.50529      351.53706      294.89805      296.19844      309.13919      169433.18      17.448608      90           
   1039000   1258075.4      679.3753       1257396        0.24549523     220.69603      277.73683      302.64872      294.22852      307.79197      169483.22     -9.3591835      89           
   1040000   1258081.1      679.70572      1257401.4      0.24549523     220.80337      253.57976      301.12432      297.90302      305.22055      169425.02      16.515708      83           
   1041000   1258083        683.35215      1257399.6      0.24549523     221.98792      231.3126       302.02768      302.25431      301.6414       169511.85     -9.5000374      81           
   1042000   1258083.6      683.68886      1257399.9      0.24549523     222.0973       230.80322      303.43742      301.34851      298.4171       169405.83      9.9756727      76           
   1043000   1258080.7      676.19219      1257404.5      0.24549523     219.66199      261.12502      295.35021      304.43773      296.6833       169480.51     -2.6775166      80           
   1044000   1258075.3      670.63339      1257404.7      0.24549523     217.85621      307.66348      296.25606      295.56494      296.94862      169455.36      6.335366       91           
   1045000   1258083.3      680.3265       1257403        0.24549523     221.00503      292.52586      300.33021      300.74126      300.09838      169459.9       1.169665       97           
   1046000   1258086.2      684.2395       1257402        0.24549523     222.27618      287.82172      300.11402      305.09318      303.32703      169484.1       9.2171297      97           
   1047000   1258078.7      680.43058      1257398.3      0.24549523     221.03884      297.34717      299.92417      300.08235      305.02338      169410.08      3.395136       99           
   1048000   1258086.8      682.58419      1257404.2      0.24549523     221.73845      324.50521      300.29592      301.833        304.80283      169493.55      7.3485939      101          
   1049000   1258085.4      682.99029      1257402.4      0.24549523     221.87037      262.91773      302.78027      299.55999      304.55764      169410.9       6.2792077      91           
   1050000   1258072.7      674.04404      1257398.7      0.24549523     218.96417      290.68652      298.62334      294.52739      304.16334      169485.32     -3.794089       99           
   1051000   1258076.7      680.52262      1257396.1      0.24549523     221.06874      270.26006      299.86456      301.46287      302.28382      169422.75      16.967418      101          
   1052000   1258076.5      680.95075      1257395.5      0.24549523     221.20782      266.49053      298.20287      304.58902      302.00615      169463.16     -13.737309      103          
   1053000   1258079.3      675.33879      1257404        0.24549523     219.38477      297.17865      298.02757      297.68743      301.29673      169461.29      23.521762      105          
   1054000   1258073.6      673.73661      1257399.9      0.24549523     218.8643       277.87721      299.53501      293.66536      301.73846      169443.23     -20.344084      107          
   1055000   1258083.4      679.06905      1257404.3      0.24549523     220.59655      285.00039      301.30587      297.28793      302.24815      169486.8       20.649253      103          
   1056000   1258075.5      681.42311      1257394        0.24549523     221.36127      301.43802      302.99625      297.4816       301.84022      169421.17     -4.0792062      104          
   1057000   1258077.3      678.03572      1257399.2      0.24549523     220.26087      293.76588      302.07304      294.72215      302.26972      169457.44      6.485955       108          
   1058000   1258090.8      681.76596      1257409        0.24549523     221.47264      255.36277      298.7856       304.92504      302.07998      169418.08      5.6477207      103          
   1059000   1258082.1      678.71854      1257403.4      0.24549523     220.48268      300.58955      298.17567      301.48506      301.60112      169475.85     -3.1156757      111          
   1060000   1258084.7      681.68097      1257403        0.24549523     221.44503      272.46305      301.19935      301.39423      300.37562      169409.8       12.471558      111          
   1061000   1258084.1      685.33706      1257398.7      0.24549523     222.63272      292.82869      303.79923      301.75009      299.9158       169496.97     -3.7872105      116          
   1062000   1258079.9      682.66583      1257397.2      0.24549523     221.76497      281.46527      299.34024      305.03045      301.22436      169439.36      12.086561      114          
   1063000   1258081.3      678.23244      1257403.1      0.24549523     220.32477      313.51631      299.77258      298.44325      300.93693      169458.62     -4.191432       120          
   1064000   1258075        672.45134      1257402.6      0.24549523     218.44677      307.55848      300.05176      290.9811       301.00306      169456.78      9.6546477      121          
   1065000   1258084.2      678.77795      1257405.4      0.24549523     220.50198      322.93098      301.67538      295.87332      301.62438      169435.24     -1.3250421      118          
   1066000   1258072.7      672.4492       1257400.2      0.24549523     218.44608      301.40297      295.75813      297.25614      302.01279      169460.44      7.294834       115          
   1067000   1258076.8      677.92231      1257398.9      0.24549523     220.22403      324.20323      296.74158      302.60791      300.19865      169390.28      3.5454694      114          
   1068000   1258079.3      681.75736      1257397.5      0.24549523     221.46985      277.08394      300.61101      302.29094      300.67696      169478.39      1.8505109      123          
   1069000   1258072.2      675.68413      1257396.5      0.24549523     219.49695      283.89726      300.08448      295.62295      299.96392      169413.12      1.181313       118          
   1070000   1258080.6      676.48446      1257404.1      0.24549523     219.75694      283.86809      299.52273      297.72842      298.81284      169479.87      9.5987936      118          
   1071000   1258082.6      676.68332      1257405.9      0.24549523     219.82154      295.01996      298.97958      298.41015      299.56702      169427.84      3.0107617      117          
   1072000   1258074.6      672.54541      1257402.1      0.24549523     218.47733      277.39343      297.16661      296.17858      300.17282      169454.16      2.2732585      107          
   1073000   1258084.1      681.6573       1257402.5      0.24549523     221.43735      302.9418       304.17741      296.65366      299.231        169453.55      5.3671335      110          
   1074000   1258079.3      674.68542      1257404.6      0.24549523     219.17252      315.21669      296.06989      299.85622      299.99981      169432.75      5.80412        112          
   1075000   1258075        675.19557      1257399.8      0.24549523     219.33824      311.03512      297.05407      299.56001      298.05315      169471.23      0.36564166     126          
   1076000   1258079.1      676.31141      1257402.7      0.24549523     219.70073      289.01298      297.61691      300.4404       298.29184      169427.83      4.6549959      112          
   1077000   1258078.3      679.38408      1257398.9      0.24549523     220.69889      286.83318      300.75688      299.87766      297.01734      169465.24      0.43883336     117          
   1078000   1258077.2      675.98013      1257401.2      0.24549523     219.59311      272.52967      300.68046      295.54965      298.9546       169431.78      6.2498125      114          
   1079000   1258078.9      678.72189      1257400.1      0.24549523     220.48377      288.62124      299.51163      300.02994      300.35505      169476.13     -4.0646631      118          
   1080000   1258078.4      682.10919      1257396.2      0.24549523     221.58414      266.11961      302.93519      298.99929      301.93313      169448.83      13.473065      109          
   1081000   1258079.4      683.05554      1257396.4      0.24549523     221.89157      296.05303      300.74721      302.9074       302.04741      169433.3      -7.3560373      106          
   1082000   1258086.2      679.96713      1257406.2      0.24549523     220.88829      278.18587      301.46031      298.38412      301.68208      169471.38      15.078152      102          
   1083000   1258084.7      682.35851      1257402.4      0.24549523     221.66514      291.0813       298.83692      304.79411      302.91671      169431.16     -2.8943217      115          
   1084000   1258087.1      682.95162      1257404.2      0.24549523     221.85781      289.01821      299.33297      305.01284      302.11468      169473.19      8.6345546      109          
   1085000   1258085.1      680.90131      1257404.2      0.24549523     221.19176      253.85799      302.52461      298.35034      302.09085      169428.65      0.2536688      111          
   1086000   1258076.8      677.56697      1257399.2      0.24549523     220.1086       264.49504      298.10866      300.89267      301.16487      169454.01      2.2682846      114          
   1087000   1258084.8      684.29746      1257400.5      0.24549523     222.295        276.52616      303.54138      300.61551      302.04288      169437.69      15.247505      120          
   1088000   1258081.3      679.82869      1257401.5      0.24549523     220.84332      282.98254      302.08979      296.9555       302.52283      169467.18     -12.539099      110          
   1089000   1258082.7      683.68488      1257399        0.24549523     222.09601      267.62775      299.64526      305.45966      303.32244      169457.15      25.407383      103          
   1090000   1258075.4      676.85668      1257398.5      0.24549523     219.87786      263.83284      297.0229       300.80819      304.35211      169444.44     -18.777797      105          
   1091000   1258083.1      678.70528      1257404.3      0.24549523     220.47838      310.66869      298.40672      300.22729      304.34655      169473.84      25.261239      106          
   1092000   1258077.4      678.3645       1257399        0.24549523     220.36768      299.97497      297.61308      300.95783      305.01283      169426.14     -17.646011      96           
   1093000   1258083.9      682.64501      1257401.3      0.24549523     221.7582       276.86467      299.88033      303.38897      304.42992      169479.99      22.532185      104          
   1094000   1258076.4      679.9872       1257396.4      0.24549523     220.89481      292.30265      300.68492      298.66476      304.46101      169418.78     -0.86289503     112          
   1095000   1258092.8      683.60258      1257409.2      0.24549523     222.06927      287.83224      302.89619      300.00615      303.78348      169481.56      0.0033089912   98           
   1096000   1258086.7      686.51113      1257400.2      0.24549523     223.01412      247.63169      304.61966      301.14896      305.04091      169415.24      19.72548       84           
   1097000   1258096.7      682.65891      1257414.1      0.24549523     221.76272      317.53954      301.51084      300.303        304.73456      169471.87     -19.278968      84           
   1098000   1258084.7      677.23278      1257407.5      0.24549523     220.00003      336.51471      299.10446      296.7235       305.57808      169428.35      34.142007      83           
   1099000   1258080.5      680.39933      1257400.1      0.24549523     221.02869      314.67164      299.68789      299.65132      306.90832      169447.54     -20.589738      97           
   1100000   1258080.3      679.0919       1257401.2      0.24549523     220.60397      297.78795      298.42227      301.0835       303.56742      169459.07      27.345426      88           
   1101000   1258080.6      683.55899      1257397.1      0.24549523     222.05511      323.22383      302.32526      300.45688      303.1469       169417.21     -15.878224      91           
   1102000   1258078.3      675.71642      1257402.6      0.24549523     219.50744      336.01906      297.92426      297.41679      302.50105      169479.75      17.754199      90           
   1103000   1258077.3      676.89838      1257400.4      0.24549523     219.8914       266.51251      301.11701      294.80537      303.28575      169422.07     -13.74692       83           
   1104000   1258085.6      683.09488      1257402.5      0.24549523     221.90434      306.78793      301.01436      302.15151      302.93814      169501.06      6.2660226      87           
   1105000   1258087        681.3327       1257405.7      0.24549523     221.3319       331.87501      298.59823      303.18353      303.29995      169408.14      8.5742204      86           
   1106000   1258084.2      680.11315      1257404.1      0.24549523     220.93572      311.89198      298.54968      301.38012      305.72373      169458.64     -10.34658       85           
   1107000   1258078.8      680.01124      1257398.8      0.24549523     220.90262      267.08033      299.82909      300.01062      305.32555      169442.74      26.465049      86           
   1108000   1258075.4      671.46817      1257403.9      0.24549523     218.12739      249.96654      296.98836      293.7356       306.39635      169446.75     -28.196783      84           
   1109000   1258081.8      678.15896      1257403.7      0.24549523     220.3009       277.05525      299.42411      298.31454      305.08871      169457.39      43.915127      89           
   1110000   1258081        677.70359      1257403.3      0.24549523     220.15298      244.31975      297.50104      301.11414      304.76641      169426.86     -42.600628      81           
   1111000   1258085.2      680.57164      1257404.6      0.24549523     221.08467      254.47329      300.98624      299.28154      305.28393      169509.77      38.463812      87           
   1112000   1258078.9      680.26732      1257398.6      0.24549523     220.98581      276.04571      301.37369      298.11818      304.49807      169392.28     -12.598209      90           
   1113000   1258074.5      671.52176      1257402.9      0.24549523     218.1448       262.6265       293.86802      298.53028      305.92373      169445.8       6.0298998      95           
   1114000   1258072.7      676.39003      1257396.3      0.24549523     219.72627      281.19088      298.89747      296.55412      306.53955      169464.74      21.05188       101          
   1115000   1258081        676.29825      1257404.7      0.24549523     219.69645      286.72861      298.09501      297.27873      307.51728      169454.17     -27.283175      100          
   1116000   1258078.7      676.3344       1257402.4      0.24549523     219.70819      288.4705       297.23999      298.45146      307.94206      169417.87      45.350256      100          
   1117000   1258074.6      674.35646      1257400.2      0.24549523     219.06566      335.10308      296.75885      296.47046      306.02943      169432.07     -40.926331      105          
   1118000   1258080        683.1249       1257396.8      0.24549523     221.9141       272.72346      298.37971      305.72187      306.53446      169479.78      51.062142      104          
   1119000   1258076.8      674.60177      1257402.2      0.24549523     219.14535      310.42144      298.07851      295.62408      304.53626      169408.94     -32.20096       111          
   1120000   1258088.9      682.57777      1257406.3      0.24549523     221.73636      302.63942      300.77937      301.54976      304.21658      169474.41      31.220761      110          
   1121000   1258092.6      690.30935      1257402.3      0.24549523     224.24798      294.95825      305.9122       303.62667      303.74163      169445.71     -16.581226      104          
   1122000   1258081.2      677.98369      1257403.2      0.24549523     220.24397      295.78134      296.99942      302.14824      302.67715      169481.36      12.486797      108          
   1123000   1258079.9      678.61225      1257401.3      0.24549523     220.44816      289.33147      299.69805      299.28208      301.52918      169391.82      1.5015236      112          
   1124000   1258081.5      681.25872      1257400.3      0.24549523     221.30787      285.9789       302.4637       298.37409      301.79165      169475.05     -3.2729535      115          
   1125000   1258086.3      679.24619      1257407        0.24549523     220.65409      281.9439       297.64454      302.87862      303.25127      169472.98      22.769001      123          
   1126000   1258078.9      680.89454      1257398        0.24549523     221.18956      290.94362      298.31242      303.24527      304.89442      169457.27     -22.282696      121          
   1127000   1258082.8      678.51002      1257404.3      0.24549523     220.41495      289.95971      296.7753       302.31517      306.11877      169454.23      30.380864      115          
   1128000   1258078.1      677.29465      1257400.9      0.24549523     220.02013      332.56224      300.35924      295.07316      304.52365      169435.98     -20.42441       114          
   1129000   1258075.2      685.11472      1257390        0.24549523     222.56049      300.22423      301.31279      304.06029      303.78158      169486.74      16.439882      104          
   1130000   1258082.7      681.95161      1257400.7      0.24549523     221.53295      317.1474       298.83512      304.15192      301.78912      169393.57      0.87145898     102          
   1131000   1258088.9      679.77362      1257409.2      0.24549523     220.82543      311.42499      299.9338       300.38249      300.08352      169498.08     -0.64517269     97           
   1132000   1258076.2      679.37127      1257396.8      0.24549523     220.69472      334.64843      299.3822       300.67507      298.78677      169448.97      14.913821      101          
   1133000   1258080.4      678.88336      1257401.5      0.24549523     220.53623      343.91197      296.6346       303.93236      299.27212      169465.82     -6.2695447      101          
   1134000   1258087.9      684.64581      1257403.2      0.24549523     222.40817      334.56117      302.20917      302.20111      301.46415      169441.62      21.329988      103          
   1135000   1258081.7      684.139        1257397.6      0.24549523     222.24353      334.22165      301.35309      302.58733      302.70028      169441.64     -11.939398      97           
   1136000   1258078.4      677.60862      1257400.8      0.24549523     220.12213      296.8437       297.29952      300.55163      305.12734      169473.44      21.946441      93           
   1137000   1258079.3      678.59734      1257400.7      0.24549523     220.44331      305.3399       298.40556      299.5019       306.91951      169423.49     -20.833926      90           
   1138000   1258068.8      671.4055       1257397.4      0.24549523     218.10703      313.38237      295.38011      295.35927      305.89636      169477.77      29.243467      89           
   1139000   1258078.8      681.40125      1257397.4      0.24549523     221.35417      316.11757      303.01824      296.50112      304.50487      169446.67     -22.142942      91           
   1140000   1258079.7      678.00409      1257401.7      0.24549523     220.25059      286.21277      295.75527      303.9155       303.6271       169429.38      20.442426      93           
   1141000   1258077.7      675.16139      1257402.5      0.24549523     219.32714      287.21333      298.756        296.56422      301.51164      169425.47     -4.3503543      100          
   1142000   1258081.8      680.10694      1257401.7      0.24549523     220.93371      290.247        302.33678      297.78592      298.99077      169452.93      1.282808       100          
   1143000   1258089.6      684.59786      1257405        0.24549523     222.39259      300.8795       300.69188      305.48535      299.32448      169472.1       15.639333      103          
   1144000   1258071.8      673.53205      1257398.3      0.24549523     218.79785      303.61598      295.99763      298.71914      300.14699      169416.03     -14.657267      100          
   1145000   1258079.4      679.88904      1257399.6      0.24549523     220.86292      310.32846      299.64486      300.46422      301.89481      169476.58      26.147661      113          
   1146000   1258079.7      673.77047      1257405.9      0.24549523     218.8753       327.56347      295.61495      298.21102      303.63587      169426.65     -20.431117      110          
   1147000   1258076.5      679.91219      1257396.6      0.24549523     220.87044      322.24402      300.95618      297.58106      304.71517      169468.5       26.91554       108          
   1148000   1258084.2      683.10715      1257401.1      0.24549523     221.90833      304.30818      300.73679      302.25118      303.99087      169406.51     -19.292395      113          
   1149000   1258080.2      675.6003       1257404.6      0.24549523     219.46972      269.03175      296.06807      300.91243      303.3281       169471.65      25.302509      110          
   1150000   1258086.2      683.01165      1257403.2      0.24549523     221.87731      271.77027      300.77763      303.29383      301.91081      169426.41     -2.4021193      110          
   1151000   1258083.1      678.44889      1257404.7      0.24549523     220.39509      258.08847      299.98349      299.45319      300.41191      169400.62     -5.0551462      103          
   1152000   1258075.5      677.88157      1257397.6      0.24549523     220.21079      224.97787      297.9548       302.44002      299.80561      169485.16      28.666219      99           
   1153000   1258072.7      672.79053      1257399.9      0.24549523     218.55696      222.41841      297.87613      296.36882      299.87339      169427.27     -30.775511      103          
   1154000   1258065.1      671.84139      1257393.3      0.24549523     218.24863      259.34535      295.84492      297.28376      301.10063      169496.73      47.636699      102          
   1155000   1258079.5      678.28081      1257401.2      0.24549523     220.34049      232.50419      299.90714      299.48485      301.87342      169398.82     -45.883611      102          
   1156000   1258072.2      670.86051      1257401.4      0.24549523     217.92999      263.15029      294.62474      297.15234      303.61936      169502.02      51.074505      100          
   1157000   1258070.1      677.35538      1257392.7      0.24549523     220.03986      267.84623      295.55573      303.70705      303.80949      169387.13     -37.825242      103          
   1158000   1258072.7      673.00409      1257399.7      0.24549523     218.62634      286.64798      292.23132      302.84111      304.59347      169470.18      36.669088      106          
   1159000   1258070.9      675.71594      1257395.2      0.24549523     219.50729      307.16029      298.0204       296.7312       306.08612      169461.36     -11.189401      108          
   1160000   1258070.2      675.20032      1257395        0.24549523     219.33979      300.22419      299.86172      293.77909      304.82889      169433.53      2.2312961      111          
   1161000   1258074.8      670.85975      1257404        0.24549523     217.92975      311.64364      292.49826      300.26273      302.26182      169468.74      21.967202      109          
   1162000   1258076.7      675.35942      1257401.4      0.24549523     219.39147      302.26758      296.86789      299.66538      300.04269      169423.43     -27.158696      115          
   1163000   1258073.7      672.26839      1257401.5      0.24549523     218.38735      291.74882      295.2993       298.60604      299.42438      169495.2       37.163982      110          
   1164000   1258072.7      675.98951      1257396.7      0.24549523     219.59616      282.94436      297.14904      300.94502      297.98751      169386        -36.181024      116          
   1165000   1258077.9      675.11683      1257402.8      0.24549523     219.31266      251.56691      298.7018       297.62586      299.48302      169499.88      30.486956      104          
   1166000   1258076.9      676.93215      1257400        0.24549523     219.90237      277.69974      296.2468       302.63135      301.2558       169416.82     -23.141527      113          
   1167000   1258082.1      680.57985      1257401.5      0.24549523     221.08733      276.14162      297.58658      304.33425      304.30987      169458.98      15.4522        102          
   1168000   1258077.2      681.61215      1257395.6      0.24549523     221.42268      307.48057      301.45674      299.08198      305.03913      169445.55      4.1345289      111          
   1169000   1258074.7      674.58484      1257400.1      0.24549523     219.13985      273.86103      298.46951      295.3575       305.99108      169471.84     -9.8365781      107          
   1170000   1258082.9      682.22709      1257400.7      0.24549523     221.62244      246.44986      302.49546      299.37742      304.629        169457.37      30.291977      103          
   1171000   1258075.7      671.88401      1257403.8      0.24549523     218.26248      258.09894      297.57294      294.88765      300.92431      169388.65     -31.552895      108          
   1172000   1258075.4      675.95573      1257399.5      0.24549523     219.58518      250.88985      299.4515       297.54209      299.60672      169483.41      49.384388      107          
   1173000   1258075.2      674.48054      1257400.7      0.24549523     219.10597      266.77939      297.07359      299.32661      298.53819      169411.34     -47.465355      111          
   1174000   1258080.9      684.81994      1257396        0.24549523     222.46473      258.69822      300.97434      305.40685      301.84014      169477.1       53.738596      105          
   1175000   1258082.6      684.6133       1257398        0.24549523     222.39761      254.04992      303.23587      301.36746      303.64214      169400.03     -38.636281      107          
   1176000   1258078.2      678.53733      1257399.7      0.24549523     220.42382      291.73879      297.3981       301.5615       305.52524      169489.55      41.405669      114          
   1177000   1258082.2      683.02087      1257399.2      0.24549523     221.8803       292.28068      302.26812      299.49469      306.41916      169439.74     -15.009783      110          
   1178000   1258085.2      679.76736      1257405.4      0.24549523     220.82339      293.46998      300.0681       299.25564      304.58211      169435.14      9.2962967      104          
   1179000   1258081.4      684.79155      1257396.6      0.24549523     222.45551      329.15992      299.22307      307.18629      300.56441      169457.85      11.429326      99           
   1180000   1258086        681.30192      1257404.7      0.24549523     221.3219       342.70419      303.51907      296.78684      298.86972      169429.38     -15.66138       94           
   1181000   1258085.4      683.5517       1257401.8      0.24549523     222.05274      310.57738      301.99503      302.31851      298.62233      169469.32      40.621125      97           
   1182000   1258081.2      675.41721      1257405.8      0.24549523     219.41024      285.8181       297.923        298.54268      299.63928      169407.59     -42.496579      94           
   1183000   1258086.8      684.89142      1257401.9      0.24549523     222.48795      271.71283      303.81278      300.36663      304.04199      169501.37      53.401571      93           
   1184000   1258075.6      677.03525      1257398.5      0.24549523     219.93587      263.06909      298.65403      297.95504      306.19783      169409.04     -29.330056      91           
   1185000   1258077.1      676.8062       1257400.3      0.24549523     219.86146      244.78991      298.41245      297.8502       307.93289      169459.48      26.807602      93           
   1186000   1258085.2      687.28248      1257397.9      0.24549523     223.26469      270.49514      302.66637      304.32566      307.02319      169447.54     -7.9901913      105          
   1187000   1258081.3      675.72309      1257405.6      0.24549523     219.50961      267.43277      298.37002      297.48093      303.93973      169464         3.6237316      108          
   1188000   1258081.9      678.77203      1257403.1      0.24549523     220.50006      304.96603      300.90372      297.17474      302.28971      169448.46      18.666824      108          
   1189000   1258087.5      679.85443      1257407.6      0.24549523     220.85168      322.21028      300.19488      300.04127      299.39113      169407.38     -23.831869      110          
   1190000   1258085.4      682.87885      1257402.5      0.24549523     221.83417      258.7533       299.7444       305.09401      300.76265      169489.57      41.662999      103          
   1191000   1258080.8      683.7133       1257397.1      0.24549523     222.10524      272.61898      303.24471      300.58516      301.12482      169406.37     -42.449924      104          
   1192000   1258079.4      679.66381      1257399.7      0.24549523     220.78976      281.56463      299.32126      300.60189      303.94098      169485.89      47.537182      100          
   1193000   1258088.6      684.66763      1257403.9      0.24549523     222.41526      265.4407       303.965        299.09285      307.60413      169437.15     -33.221699      106          
   1194000   1258081.9      685.18334      1257396.7      0.24549523     222.58278      302.98155      301.24611      302.81807      309.03782      169470.16      29.117423      112          
   1195000   1258086.7      681.40171      1257405.3      0.24549523     221.35432      269.12816      299.93197      300.85276      308.52042      169457.13     -4.060157       108          
   1196000   1258085        680.95724      1257404        0.24549523     221.20993      263.01112      302.27645      297.65617      305.53051      169423.64     -0.17120704     106          
   1197000   1258079.9      677.69663      1257402.2      0.24549523     220.15072      264.1535       297.3976       301.15558      304.96978      169491.51      13.312339      112          
   1198000   1258078.5      675.47208      1257403        0.24549523     219.42807      284.31634      293.2011       304.72224      303.58614      169428.4      -15.744245      106          
   1199000   1258057.8      665.16634      1257392.6      0.24549523     216.08023      306.58679      291.31092      294.45369      303.84014      169503.44      33.075807      105          
   1200000   1258073.2      679.31935      1257393.9      0.24549523     220.67786      288.41705      297.58219      302.05825      306.14483      169442.93     -27.851213      104          
   1201000   1258083.3      679.56277      1257403.7      0.24549523     220.75693      265.69834      298.66166      300.9581       306.93805      169503.19      35.654158      105          
   1202000   1258078.3      676.52935      1257401.8      0.24549523     219.77152      268.32531      295.47721      301.65329      307.66438      169419.89     -21.56267       99           
   1203000   1258085.3      682.52741      1257402.8      0.24549523     221.72         330.04177      300.97411      300.03759      306.99228      169480.55      25.995813      107          
   1204000   1258076.7      675.81783      1257400.9      0.24549523     219.54038      301.63401      298.25487      296.95064      304.7239       169432.54     -10.568833      95           
   1205000   1258091        681.44442      1257409.6      0.24549523     221.36819      303.75032      300.41206      301.12672      302.94054      169442.74      14.113282      104          
   1206000   1258081.6      682.73393      1257398.9      0.24549523     221.78709      306.7212       302.62296      299.14319      303.44352      169453.38      4.7730076      107          
   1207000   1258085.9      682.95055      1257403        0.24549523     221.85746      320.82445      305.16438      295.58489      302.52627      169449.37     -1.9609187      99           
   1208000   1258077.5      678.9918       1257398.5      0.24549523     220.57145      311.99075      300.94154      297.45215      301.86793      169494.14      22.131802      99           
   1209000   1258087.5      681.17157      1257406.3      0.24549523     221.27955      284.10614      300.95191      299.83089      304.43872      169413.06     -18.430997      94           
   1210000   1258083.1      683.78529      1257399.4      0.24549523     222.12863      279.7315       304.03356      298.1524       305.72158      169467.51      30.713321      103          
   1211000   1258076.5      681.57924      1257394.9      0.24549523     221.41199      269.22807      301.43478      299.21549      306.70601      169457.4      -19.090611      96           
   1212000   1258074.6      680.17232      1257394.4      0.24549523     220.95495      259.86743      298.41484      302.04601      307.04073      169448.76      17.679175      95           
   1213000   1258077.4      677.20551      1257400.2      0.24549523     219.99117      274.58924      296.70231      301.24011      305.34155      169444.87      0.9506934      99           
   1214000   1258080.9      673.94357      1257407        0.24549523     218.93153      281.36503      296.4142       298.02831      303.50531      169464.64      4.2588331      91           
   1215000   1258072.3      673.41913      1257398.9      0.24549523     218.76116      322.56965      297.4884       295.32656      302.76469      169480.88      6.1690493      108          
   1216000   1258076.1      677.54477      1257398.6      0.24549523     220.10138      289.49056      299.10094      298.38711      303.22771      169414.95     -8.2652082      110          
   1217000   1258082.8      681.11979      1257401.6      0.24549523     221.26273      302.67754      299.35672      302.58949      301.73117      169464.8       22.283867      119          
   1218000   1258080.4      686.33057      1257394        0.24549523     222.95546      273.89002      303.24598      303.08459      303.97646      169445.19     -16.084571      116          
   1219000   1258082.2      677.26015      1257405        0.24549523     220.00892      268.36495      297.17816      300.78352      305.29899      169432.16      22.58819       113          
   1220000   1258078.4      679.33733      1257399.1      0.24549523     220.6837       288.3584       299.98053      298.96103      304.57929      169438.14     -18.930338      111          
   1221000   1258078.1      674.86659      1257403.2      0.24549523     219.23137      293.45796      298.42367      295.75364      304.33713      169484.89      20.328852      96           
   1222000   1258073.8      678.67812      1257395.1      0.24549523     220.46955      301.57526      297.67568      301.76509      303.13258      169434.44     -6.1394987      103          
   1223000   1258083.9      678.91213      1257405        0.24549523     220.54557      305.20551      296.95337      303.88377      300.81831      169426         3.5870296      103          
   1224000   1258083.8      682.70477      1257401.1      0.24549523     221.77762      274.01984      303.60186      298.70026      301.461        169464.04      11.584337      105          
   1225000   1258080.3      679.18578      1257401.1      0.24549523     220.63447      301.5645       302.17775      296.51797      300.03567      169450.7      -13.97963       104          
   1226000   1258083.3      677.46468      1257405.9      0.24549523     220.07537      262.61054      300.94854      296.46072      301.34429      169456.87      28.548861      104          
   1227000   1258086.7      689.75325      1257397        0.24549523     224.06733      270.11635      302.95018      308.13         302.43021      169436.16     -14.369234      108          
   1228000   1258075.7      674.2926       1257401.4      0.24549523     219.04491      280.17643      298.64714      295.22603      303.33575      169460.01      26.811655      109          
   1229000   1258079.5      682.38571      1257397.1      0.24549523     221.67397      263.70459      300.56573      302.47533      303.73931      169448.39     -14.997751      110          
   1230000   1258080.8      677.40046      1257403.4      0.24549523     220.0545       294.21187      297.91524      300.04749      302.69391      169447.85      23.891969      107          
   1231000   1258081.7      679.28591      1257402.4      0.24549523     220.66699      266.04772      300.45601      298.76018      303.44137      169446.6      -7.4934974      103          
   1232000   1258074.5      677.8767       1257396.6      0.24549523     220.20921      285.78989      296.849        302.18969      303.54487      169468.58      2.3635161      110          
   1233000   1258074.6      677.73005      1257396.9      0.24549523     220.16157      259.98646      297.17868      302.1641       302.53365      169415.88      13.178424      103          
   1234000   1258086.2      681.09562      1257405.1      0.24549523     221.25488      274.32024      302.53569      298.46152      301.25554      169458.73     -12.323369      106          
   1235000   1258087.4      681.84658      1257405.6      0.24549523     221.49883      283.52116      299.26344      304.29086      300.59087      169461.41      17.252946      109          
   1236000   1258082.3      678.78651      1257403.5      0.24549523     220.50476      279.1125       297.17308      303.88513      299.94414      169428        -23.372043      110          
   1237000   1258080        684.17601      1257395.8      0.24549523     222.25555      306.09351      302.84143      301.3194       300.67373      169491.51      28.897484      119          
   1238000   1258071.7      675.3303       1257396.4      0.24549523     219.38201      289.20619      299.08923      295.81799      302.88626      169434.59     -23.760217      117          
   1239000   1258083.4      682.27856      1257401.1      0.24549523     221.63916      302.59321      301.19282      300.53167      304.38915      169473.14      24.719475      118          
   1240000   1258086.9      679.91139      1257407        0.24549523     220.87018      262.55829      298.35488      302.13736      306.11889      169417.05     -11.427912      108          
   1241000   1258096.6      690.77307      1257405.8      0.24549523     224.39862      273.24712      303.13666      307.91475      307.10566      169477.7       4.4742754      118          
   1242000   1258088.3      684.66396      1257403.7      0.24549523     222.41406      280.10912      302.34853      302.10199      304.71122      169473.77      10.261938      122          
   1243000   1258091.2      686.36004      1257404.9      0.24549523     222.96504      305.50049      303.03527      302.89694      303.81655      169424.9      -9.1044339      107          
   1244000   1258080.9      676.5066       1257404.4      0.24549523     219.76413      290.38665      299.79823      296.15774      302.87557      169469.59      16.499134      106          
   1245000   1258087.2      677.25887      1257410        0.24549523     220.00851      309.56077      299.04677      298.28612      301.29585      169444.18     -16.021982      124          
   1246000   1258087.7      680.74705      1257406.9      0.24549523     221.14165      326.62041      297.23121      305.37908      299.95249      169449.32      24.832445      111          
   1247000   1258069.1      670.55704      1257398.5      0.24549523     217.83141      312.65977      293.67486      298.31931      300.31974      169442.22     -10.83938       103          
   1248000   1258078.3      680.87204      1257397.4      0.24549523     221.18225      335.11278      301.7793       298.23614      301.30202      169455.2       8.3202272      102          
   1249000   1258084.2      677.29049      1257406.9      0.24549523     220.01878      317.03282      301.16799      294.33628      304.06802      169475         6.8078286      89           
   1250000   1258090.4      685.00027      1257405.4      0.24549523     222.52331      307.98911      306.3996       295.60488      305.82709      169415.15     -5.3223171      90           
   1251000   1258081        674.67492      1257406.3      0.24549523     219.16911      280.25171      296.12188      298.31107      307.4771       169467.07      15.88326       88           
   1252000   1258078        677.4937       1257400.5      0.24549523     220.08479      288.59244      295.20764      303.43039      305.98364      169436.92     -13.846046      86           
   1253000   1258084.7      681.05918      1257403.6      0.24549523     221.24304      235.29647      301.35252      299.67248      304.93228      169452.49      21.468382      95           
   1254000   1258087.4      679.89203      1257407.5      0.24549523     220.86389      288.7099       299.31636      301.38147      301.60736      169427.32     -11.577453      93           
   1255000   1258086        677.49986      1257408.5      0.24549523     220.08679      264.81481      300.36346      297.09998      301.94746      169460.5       4.057127       89           
   1256000   1258088.9      679.02901      1257409.9      0.24549523     220.58354      283.923        299.32161      300.38785      301.51288      169452.32      4.8763532      86           
   1257000   1258080.5      677.24212      1257403.2      0.24549523     220.00307      270.25104      297.80034      299.83468      304.49729      169450.75     -2.2791019      81           
   1258000   1258074.9      674.16856      1257400.7      0.24549523     219.00462      308.11223      296.2721       297.61793      305.60927      169469.97      15.259677      91           
   1259000   1258080.7      678.13962      1257402.5      0.24549523     220.29462      308.16147      295.06854      303.81496      307.45694      169440.98     -12.347386      88           
   1260000   1258071.6      676.01874      1257395.5      0.24549523     219.60565      306.51188      297.88568      297.3186       306.4294       169486.5       21.751582      86           
   1261000   1258074.9      673.66396      1257401.2      0.24549523     218.8407       297.32036      292.91011      302.48474      304.49655      169436.47     -11.188028      89           
   1262000   1258078.4      677.71894      1257400.6      0.24549523     220.15796      272.57523      297.26173      301.43684      303.85786      169430.69      12.439976      93           
   1263000   1258075.2      673.96043      1257401.2      0.24549523     218.93701      298.99913      296.87102      297.5913       301.71282      169433.63      3.0612745      105          
   1264000   1258070.8      678.39892      1257392.4      0.24549523     220.37886      359.83106      298.77605      299.83895      298.95869      169448.19     -8.5017514      112          
   1265000   1258089.2      685.42225      1257403.8      0.24549523     222.66039      319.64825      303.93071      301.45251      298.77662      169479.8       25.752609      120          
   1266000   1258079        678.62371      1257400.4      0.24549523     220.45188      273.98499      301.87603      296.46681      300.84398      169426.39     -19.565862      111          
   1267000   1258077.7      679.21028      1257398.5      0.24549523     220.64243      290.49657      298.37907      302.01229      301.48507      169468.52      22.678149      123          
   1268000   1258079.6      675.71323      1257403.9      0.24549523     219.5064       271.01755      296.68216      299.91319      303.97165      169442.15     -9.0243933      108          
   1269000   1258075.3      676.20028      1257399.1      0.24549523     219.66463      307.11863      295.3056       301.97653      303.92875      169426.69      6.9635952      115          
   1270000   1258084.2      682.7698       1257401.4      0.24549523     221.79874      316.72551      301.66497      301.05948      301.18005      169489.49      12.500493      106          
   1271000   1258077        679.39238      1257397.6      0.24549523     220.70158      304.46589      301.64494      297.01609      301.63216      169427.41     -15.072694      118          
   1272000   1258079.9      679.47955      1257400.4      0.24549523     220.7299       281.88338      300.88896      298.76153      301.27338      169460.37      33.928302      121          
   1273000   1258087.7      682.67014      1257405        0.24549523     221.76637      299.80794      301.51365      301.58472      300.66222      169441.75     -28.823717      114          
   1274000   1258084.1      681.21732      1257402.9      0.24549523     221.29442      261.91546      299.27111      303.49809      301.98257      169456.84      35.204956      115          
   1275000   1258080.4      683.75495      1257396.7      0.24549523     222.11877      297.87413      301.58971      302.09511      303.50043      169430.17     -24.706127      116          
   1276000   1258086        685.29128      1257400.7      0.24549523     222.61785      290.05832      301.80037      303.4624       304.87481      169477.27      19.491655      125          
   1277000   1258089.3      688.08653      1257401.3      0.24549523     223.52589      308.29467      304.26698      303.22081      303.41934      169471.05     -6.5796011      122          
   1278000   1258085.5      682.80899      1257402.7      0.24549523     221.81147      317.45643      300.91958      302.10533      301.55398      169456.27      2.5864532      111          
   1279000   1258088.5      685.76063      1257402.7      0.24549523     222.77032      321.22478      305.52029      298.94663      300.72989      169431.95      19.324881      107          
   1280000   1258084.4      678.99324      1257405.4      0.24549523     220.57192      306.626        301.60873      296.7447       300.88772      169455.01     -14.978691      107          
   1281000   1258074.2      680.06169      1257394.2      0.24549523     220.91901      342.1763       300.41432      298.77978      302.50229      169469.24      30.929348      115          
   1282000   1258080.2      679.65712      1257400.6      0.24549523     220.78758      329.35623      299.45505      299.7854       303.15769      169432.36     -30.610966      115          
   1283000   1258095.5      688.68541      1257406.8      0.24549523     223.72044      306.85256      302.78607      305.97142      304.35844      169476.85      38.050259      111          
   1284000   1258079.5      680.92767      1257398.6      0.24549523     221.20032      304.82693      299.48307      301.70258      303.34717      169458.21     -29.799635      106          
   1285000   1258085.2      679.7204       1257405.5      0.24549523     220.80814      329.907        301.60735      296.7818       302.45711      169464.72      23.188267      104          
   1286000   1258084.4      681.18961      1257403.2      0.24549523     221.28541      302.8337       303.2528       297.10837      300.68763      169431.27     -5.8128707      108          
   1287000   1258089.8      688.13996      1257401.6      0.24549523     223.54324      333.9878       306.37265      300.48642      300.39038      169450.41     -2.9358499      109          
   1288000   1258085.2      679.13316      1257406.1      0.24549523     220.61737      328.2794       300.68475      297.84706      301.37925      169489.97      21.71619       100          
   1289000   1258087.5      685.24786      1257402.2      0.24549523     222.60374      283.70335      301.61559      304.52296      301.96967      169408.51     -26.800452      83           
   1290000   1258093.5      691.43661      1257402.1      0.24549523     224.61417      286.1395       307.23805      303.24832      303.25411      169453.97      48.499622      88           
   1291000   1258087        683.33335      1257403.6      0.24549523     221.98181      317.55243      300.25006      303.6239       302.38441      169434.21     -36.177105      93           
   1292000   1258085.8      682.02438      1257403.7      0.24549523     221.55659      308.53846      301.35598      300.46458      302.31474      169485.61      45.991035      86           
   1293000   1258079.7      679.0269       1257400.6      0.24549523     220.58285      251.32913      299.48165      300.63619      301.32096      169455.75     -30.952583      86           
   1294000   1258091.5      687.67258      1257403.8      0.24549523     223.39142      276.49337      304.3952       304.13885      299.01565      169481.25      28.082419      82           
   1295000   1258085.7      683.00399      1257402.7      0.24549523     221.87482      358.73825      302.91142      300.12953      296.63415      169455.81     -9.0993043      90           
   1296000   1258083.8      676.62513      1257407.2      0.24549523     219.80264      281.88779      299.18291      298.83382      297.11303      169457.38     -5.2776207      82           
   1297000   1258087.6      679.60511      1257408        0.24549523     220.77069      289.8719       299.79049      301.34828      297.50926      169466.45      29.988334      79           
   1298000   1258074.1      680.49291      1257393.6      0.24549523     221.05909      315.56085      300.25164      301.3431       297.85045      169426.4      -32.215373      85           
   1299000   1258084.7      683.39002      1257401.3      0.24549523     222.00022      306.48345      301.73897      302.11832      300.34715      169467.29      46.851402      89           
   1300000   1258095.9      690.23863      1257405.7      0.24549523     224.225        242.25799      305.15619      305.82063      301.64344      169416.54     -42.293902      75           
   1301000   1258085.9      684.3563       1257401.5      0.24549523     222.31412      246.8257       302.91031      301.85731      302.04038      169489.78      53.043417      81           
   1302000   1258094.7      683.51006      1257411.2      0.24549523     222.03922      262.72897      300.74234      304.17573      301.29838      169430.58     -37.937644      86           
   1303000   1258078.5      673.6788       1257404.8      0.24549523     218.84552      235.86805      298.51909      296.00193      299.9846       169469         32.688248      79           
   1304000   1258080.1      675.55405      1257404.5      0.24549523     219.45469      247.00042      298.40428      298.56564      299.34758      169439.43     -9.929944       84           
   1305000   1258086.6      682.52506      1257404.1      0.24549523     221.71924      267.64218      302.73124      300.71922      297.90153      169456.49      1.9590636      81           
   1306000   1258084.8      679.24144      1257405.6      0.24549523     220.65255      293.54968      300.14617      300.2845       297.73138      169449.81      33.55175       79           
   1307000   1258076.2      672.76433      1257403.5      0.24549523     218.54845      297.21495      296.45585      297.72363      298.11139      169431.39     -36.982335      84           
   1308000   1258075.1      675.60608      1257399.5      0.24549523     219.4716       294.22669      301.81755      293.15732      298.25502      169497.93      53.416263      89           
   1309000   1258086.7      676.71072      1257410        0.24549523     219.83044      304.857        300.20861      296.83277      298.09642      169427.85     -48.582657      86           
   1310000   1258076.5      676.77328      1257399.8      0.24549523     219.85076      353.05082      298.83366      298.49414      297.37062      169463.07      45.409147      89           
   1311000   1258073.5      680.32425      1257393.2      0.24549523     221.0043       329.2212       301.89154      298.62377      297.41281      169443.58     -28.884435      81           
   1312000   1258073.9      668.53848      1257405.4      0.24549523     217.17568      269.66605      299.30176      288.71347      297.56058      169459.55      19.398068      73           
   1313000   1258085.4      675.70681      1257409.7      0.24549523     219.50432      272.98092      295.90141      302.55506      297.68462      169447.57      6.8594638      70           
   1314000   1258083.5      679.142        1257404.3      0.24549523     220.62024      302.12453      299.43166      301.4594       296.49623      169432.96     -19.56444       82           
   1315000   1258082.2      680.06273      1257402.1      0.24549523     220.91935      299.91118      302.21822      298.0178       298.02097      169493.2       43.86352       90           
   1316000   1258072.2      672.2383       1257400        0.24549523     218.37757      291.68482      295.37869      299.12403      296.82191      169411.74     -45.457571      81           
   1317000   1258078.7      675.43538      1257403.3      0.24549523     219.41615      323.81928      297.57857      299.40412      296.52153      169476.35      52.779585      76           
   1318000   1258078.6      670.24384      1257408.4      0.24549523     217.72967      277.83373      293.25571      299.99354      297.02665      169437.4      -36.172159      74           
   1319000   1258078.3      677.06453      1257401.2      0.24549523     219.94538      295.98656      299.00964      299.80206      296.01553      169460.29      34.089562      83           
   1320000   1258078.3      680.23609      1257398.1      0.24549523     220.97566      288.03069      300.46017      301.74731      295.2993       169454.12     -5.9913016      83           
   1321000   1258081.4      682.00887      1257399.4      0.24549523     221.55155      270.80271      301.1969       303.15877      295.13366      169453.39     -1.3121919      95           
   1322000   1258082        681.09472      1257400.9      0.24549523     221.25459      295.98419      302.95185      299.38849      293.64171      169464.12      24.620664      101          
   1323000   1258092.6      686.2919       1257406.3      0.24549523     222.9429       288.22893      304.25115      303.7104       294.56613      169450.22     -25.863998      94           
   1324000   1258084.5      681.51861      1257403        0.24549523     221.39229      317.16408      301.53783      301.45299      294.66594      169468.95      49.089134      93           
   1325000   1258084.5      678.54434      1257405.9      0.24549523     220.42609      313.13836      300.60821      298.86469      296.14878      169442.39     -47.949903      97           
   1326000   1258079.8      679.04508      1257400.8      0.24549523     220.58876      335.37025      299.70052      300.79443      295.02625      169479.04      56.245434      98           
   1327000   1258083.8      678.29382      1257405.5      0.24549523     220.34471      332.47275      299.26769      300.48003      295.36818      169425.11     -45.696137      98           
   1328000   1258075.1      674.09565      1257401        0.24549523     218.98093      289.17359      298.98371      296.30793      295.65394      169486.47      45.28072       92           
   1329000   1258071.7      672.82548      1257398.8      0.24549523     218.56832      285.31385      297.40816      297.50207      294.46389      169456.91     -14.484405      86           
   1330000   1258089.9      678.03489      1257411.9      0.24549523     220.2606       279.48853      301.73789      297.54197      294.17531      169399.32      1.9915191      82           
   1331000   1258078.5      680.01872      1257398.5      0.24549523     220.90505      348.11145      302.07359      298.84875      293.24802      169489.31      28.085994      81           
   1332000   1258080.5      677.47946      1257403        0.24549523     220.08017      310.57086      301.05148      297.89499      292.57178      169456.79     -33.837381      91           
   1333000   1258080.4      674.41156      1257406        0.24549523     219.08356      276.29873      301.47086      293.21059      295.43178      169466.07      46.542245      92           
   1334000   1258083        683.40287      1257399.6      0.24549523     222.0044       314.97813      301.77833      303.05367      296.16495      169441.38     -39.418684      95           
   1335000   1258073.1      676.89527      1257396.2      0.24549523     219.89039      268.03137      299.25612      299.00607      297.8673       169498.21      44.60424       85           
   1336000   1258080.2      678.38223      1257401.8      0.24549523     220.37343      286.31302      303.51759      294.38062      297.497        169418.33     -38.539064      83           
   1337000   1258078.5      680.41215      1257398.1      0.24549523     221.03286      296.31418      302.17277      299.07348      296.11693      169461.32      35.923032      86           
   1338000   1258073.8      669.94988      1257403.8      0.24549523     217.63417      224.65508      296.29669      295.60149      297.84075      169432.78     -14.268791      90           
   1339000   1258084.7      681.14425      1257403.5      0.24549523     221.27068      257.61574      301.55837      301.199        297.0916       169453.4       5.1768314      92           
   1340000   1258082.2      678.81133      1257403.4      0.24549523     220.51283      264.69101      300.17997      300.39874      296.49727      169467.96      13.759413      80           
   1341000   1258085.2      681.04944      1257404.2      0.24549523     221.23988      241.62868      301.67288      301.16208      296.36047      169447.03     -13.774397      72           
   1342000   1258077.3      675.98971      1257401.3      0.24549523     219.59622      243.67583      299.637        297.69327      297.4548       169470.97      19.097564      71           
   1343000   1258071.9      672.37617      1257399.5      0.24549523     218.42236      261.13084      296.67453      297.30636      298.19454      169436.69     -15.875161      73           
   1344000   1258086.9      682.50982      1257404.3      0.24549523     221.71429      285.42478      301.97598      301.35327      298.83176      169464.76      21.935242      69           
   1345000   1258085.2      685.07013      1257400.1      0.24549523     222.54601      297.02679      302.41299      303.63592      299.08369      169479.76     -9.2657076      77           
   1346000   1258079        677.39897      1257401.6      0.24549523     220.05402      298.21524      296.48259      303.21796      298.52796      169441.47      15.742286      81           
   1347000   1258089.3      688.11317      1257401.2      0.24549523     223.53454      308.09677      306.53094      301.62496      296.76609      169419.94     -1.5032961      78           
   1348000   1258082.1      678.60169      1257403.5      0.24549523     220.44473      264.33871      300.82698      298.86828      297.60109      169454.48      0.52199251     76           
   1349000   1258074.3      678.99797      1257395.3      0.24549523     220.57346      271.51306      298.20068      303.00472      298.21254      169440.42      17.857533      67           
   1350000   1258076.1      677.51029      1257398.6      0.24549523     220.09018      267.52563      297.43038      302.00663      299.61635      169427.64     -19.679545      69           
   1351000   1258081.7      676.54757      1257405.2      0.24549523     219.77744      260.04336      294.60613      305.29023      299.32756      169461.46      23.144497      77           
   1352000   1258082.4      676.5216       1257405.9      0.24549523     219.76901      270.27303      299.28071      297.74034      300.33374      169455.18     -16.927308      67           
   1353000   1258078        676.32219      1257401.7      0.24549523     219.70423      323.97941      298.84612      297.65528      300.10363      169432.11      23.825613      74           
   1354000   1258078.7      678.7005       1257400        0.24549523     220.47683      344.3232       300.35624      297.91421      300.81991      169455.47     -10.807994      69           
   1355000   1258087.6      676.72502      1257410.8      0.24549523     219.83509      365.94663      298.42506      298.19063      300.49903      169504.51      12.114785      74           
   1356000   1258085        680.02965      1257405        0.24549523     220.9086       338.65863      299.83591      300.32129      300.92872      169434.26      4.9584847      76           
   1357000   1258084.7      678.86556      1257405.8      0.24549523     220.53044      303.23827      297.0606       303.69813      300.15664      169447.22     -0.024302189    68           
   1358000   1258083.8      678.28499      1257405.5      0.24549523     220.34185      313.17417      297.35899      302.38572      300.33572      169485.28      14.50179       66           
   1359000   1258075.7      674.94104      1257400.7      0.24549523     219.25556      292.38538      298.98082      296.16885      300.0413       169403.12     -8.9559794      81           
   1360000   1258083.7      678.13644      1257405.5      0.24549523     220.29359      275.33365      298.83689      301.17871      297.516        169484.85      15.609358      82           
   1361000   1258076        675.49544      1257400.5      0.24549523     219.43566      315.43435      298.65693      297.59298      297.85858      169436.09     -7.391158       86           
   1362000   1258080.6      676.85064      1257403.8      0.24549523     219.8759       310.00444      297.19543      301.26256      298.81777      169473.89      5.9296927      93           
   1363000   1258070.8      672.53052      1257398.3      0.24549523     218.4725       284.29547      296.19504      297.39744      300.51611      169446.46      11.33524       95           
   1364000   1258074.1      675.20357      1257398.9      0.24549523     219.34084      279.92842      299.11336      295.95823      302.01686      169422.96     -3.6892977      98           
   1365000   1258072.5      678.88922      1257393.6      0.24549523     220.53813      273.89662      300.24058      298.60399      303.17536      169482.83      13.509318      103          
   1366000   1258077.4      678.69738      1257398.7      0.24549523     220.47581      255.8387       300.56311      298.13785      303.28993      169425.53     -8.3916621      102          
   1367000   1258082.2      676.64109      1257405.6      0.24549523     219.80782      313.64317      299.57034      296.81832      300.73744      169476.52      14.772498      104          
   1368000   1258081        678.26614      1257402.7      0.24549523     220.33572      286.46536      301.01851      297.12323      300.5113       169439.13     -0.64761197     97           
   1369000   1258077.4      680.69433      1257396.7      0.24549523     221.12452      286.08278      302.06998      298.88949      298.96448      169467.49      2.3629525      92           
   1370000   1258076.9      674.73509      1257402.2      0.24549523     219.18866      293.17859      300.77103      293.84161      297.61219      169435.1       5.8227289      82           
   1371000   1258083.6      672.46129      1257411.2      0.24549523     218.45001      307.28674      297.50142      295.46398      298.68844      169463.22      2.84231        77           
   1372000   1258088        681.86588      1257406.1      0.24549523     221.5051       288.63535      303.0674       298.26954      301.11965      169467.2      -2.841986       79           
   1373000   1258089.2      686.52087      1257402.7      0.24549523     223.01728      324.87316      302.1414       304.09018      304.15519      169427.87      11.45081       89           
   1374000   1258082.9      678.04206      1257404.9      0.24549523     220.26293      276.53057      298.69203      299.00224      306.10556      169454.52      0.011914539    91           
   1375000   1258089.8      687.93053      1257401.8      0.24549523     223.47521      271.76732      305.222        301.05832      307.34504      169441.71      13.293769      92           
   1376000   1258082        680.7753       1257401.2      0.24549523     221.15083      268.42904      299.80211      300.97339      305.86196      169476.18     -2.8835018      96           
   1377000   1258091.2      680.9932       1257410.2      0.24549523     221.22161      318.70953      297.19139      304.6322       304.60966      169438.87      13.416621      102          
   1378000   1258085.9      681.41322      1257404.5      0.24549523     221.35806      303.57819      300.79789      300.83591      301.70328      169494.66     -6.7181506      97           
   1379000   1258074.7      681.39208      1257393.3      0.24549523     221.35119      316.8847       301.16872      300.52457      299.69762      169441.47      11.480718      97           
   1380000   1258073        669.14875      1257403.9      0.24549523     217.37393      327.42176      292.46343      298.12329      300.89298      169450.47     -1.8029863      88           
   1381000   1258068.9      670.27758      1257398.6      0.24549523     217.74063      323.21044      296.58254      292.64212      303.67661      169469         5.415828       79           
   1382000   1258082.4      679.07629      1257403.3      0.24549523     220.5989       316.00991      298.63931      299.84524      306.03894      169460.4       3.0073277      76           
   1383000   1258091.8      686.81475      1257405        0.24549523     223.11275      335.10615      304.13666      300.66794      306.78786      169459.01     -2.4586105      75           
   1384000   1258083.8      681.55075      1257402.3      0.24549523     221.40273      312.22525      298.40498      303.42084      305.52864      169422.07      15.073347      78           
   1385000   1258085.3      681.35119      1257404        0.24549523     221.33791      337.88351      299.19347      302.11028      303.97471      169494.31     -9.4275472      82           
   1386000   1258083.3      683.29946      1257400        0.24549523     221.9708       308.05622      303.60086      298.3697       303.27082      169435.14      24.857739      83           
   1387000   1258082.8      679.04934      1257403.8      0.24549523     220.59015      337.4486       300.44748      297.46393      303.50451      169501.81     -15.383415      86           
   1388000   1258082.1      677.18749      1257404.9      0.24549523     219.98532      311.39203      299.56544      296.99739      303.01952      169411.66      22.209581      75           
   1389000   1258077.8      677.16733      1257400.6      0.24549523     219.97877      295.50195      298.44934      298.35284      305.09895      169458.26     -13.696614      72           
   1390000   1258081.2      682.24564      1257399        0.24549523     221.62847      291.77576      299.50289      302.45324      307.09655      169423.83      9.634387       78           
   1391000   1258078.3      680.94873      1257397.4      0.24549523     221.20717      345.70503      299.10681      300.43496      308.12721      169451.17      6.5082124      85           
   1392000   1258081.6      681.01352      1257400.6      0.24549523     221.22821      347.23034      300.88452      297.85533      308.14773      169474.77     -10.190478      85           
   1393000   1258089.9      687.67498      1257402.2      0.24549523     223.3922       320.46617      303.99518      301.6826       308.59985      169411.88      14.311365      79           
   1394000   1258081.1      683.13496      1257397.9      0.24549523     221.91737      300.95166      302.41105      299.02252      307.27007      169501.5      -2.4817851      87           
   1395000   1258078.1      678.62115      1257399.5      0.24549523     220.45105      302.46838      300.2964       296.98315      305.9545       169398.9       8.9813238      87           
   1396000   1258086.3      681.85487      1257404.4      0.24549523     221.50152      312.09553      299.96183      301.21632      306.48049      169460.51     -5.2825493      92           
   1397000   1258078.8      677.42521      1257401.3      0.24549523     220.06254      296.31269      295.93582      301.70089      307.67839      169448.26      13.930508      90           
   1398000   1258094.5      687.23874      1257407.3      0.24549523     223.25048      302.49066      303.04295      302.51375      309.48131      169458.89     -7.0152546      93           
   1399000   1258094.5      689.04343      1257405.5      0.24549523     223.83674      282.93417      306.06056      300.47293      309.39033      169436.67      12.747468      87           
   1400000   1258075.1      682.27171      1257392.9      0.24549523     221.63694      324.53185      299.65092      301.10308      309.77366      169444.22      5.8299973      95           
   1401000   1258074.8      676.94103      1257397.8      0.24549523     219.90526      311.23203      296.28207      300.02161      308.99543      169479.9      -2.9718557      92           
   1402000   1258075.3      679.69292      1257395.6      0.24549523     220.79921      347.03815      295.8488       303.85661      307.73079      169437.4       16.443999      94           
   1403000   1258077.1      679.00292      1257398.1      0.24549523     220.57507      366.93091      298.34112      299.599        305.18986      169481.72     -9.3049023      99           
   1404000   1258083.8      680.83534      1257403        0.24549523     221.17033      331.91953      298.87576      301.83353      304.26834      169427.43      17.147135      100          
   1405000   1258082.8      678.39526      1257404.4      0.24549523     220.37767      311.34245      297.58922      300.94752      304.84637      169461.98     -9.8766305      102          
   1406000   1258079        681.18462      1257397.8      0.24549523     221.28379      312.8843       299.65532      300.91591      306.0245       169402.96      10.155854      108          
   1407000   1258089.9      679.76694      1257410.1      0.24549523     220.82326      308.23141      299.07688      299.68341      307.68284      169456.51      3.3688426      104          
   1408000   1258076.7      678.30014      1257398.4      0.24549523     220.34677      295.25892      297.87778      299.80174      307.98995      169446.09      5.0740109      97           
   1409000   1258087.9      683.18587      1257404.8      0.24549523     221.9339       308.57319      301.84516      299.94955      306.81794      169468.67      4.67179        99           
   1410000   1258082.8      678.39312      1257404.4      0.24549523     220.37697      325.48561      297.40011      300.32916      307.403        169466.92      3.9498942      97           
   1411000   1258082.8      680.23698      1257402.6      0.24549523     220.97595      308.93968      299.49736      299.89071      306.66354      169422.11      3.1297393      97           
   1412000   1258088.9      685.11412      1257403.8      0.24549523     222.5603       294.49358      303.39119      300.99901      303.70621      169474.92      0.2828152      96           
   1413000   1258084.9      679.7271       1257405.2      0.24549523     220.81032      302.57134      298.87917      300.94447      304.16717      169417.62      8.117363       85           
   1414000   1258078.8      677.34274      1257401.5      0.24549523     220.03575      300.25474      296.42347      301.67333      304.44793      169488.98      0.79594155     93           
   1415000   1258080.1      681.50162      1257398.6      0.24549523     221.38677      303.85808      301.37901      299.15281      304.92704      169427.3       7.768561       90           
   1416000   1258081.8      680.39064      1257401.4      0.24549523     221.02587      300.45905      302.20006      296.52418      305.09334      169448.06     -0.71049805     78           
   1417000   1258083.2      685.56753      1257397.6      0.24549523     222.70759      299.42121      299.56744      306.58428      306.20715      169469.58      7.4575673      74           
   1418000   1258066.9      671.39997      1257395.5      0.24549523     218.10524      253.76421      297.34566      293.01493      306.38921      169453.08      12.735756      80           
   1419000   1258082.9      680.92734      1257402        0.24549523     221.20022      270.10234      298.83113      302.50118      306.27014      169475.97     -3.8702642      86           
   1420000   1258090.7      688.21974      1257402.5      0.24549523     223.56916      319.17949      303.29025      304.26701      305.13608      169455.55      18.51865       90           
   1421000   1258086.9      678.94604      1257407.9      0.24549523     220.55659      299.13306      299.25492      299.32384      304.75282      169451.59     -15.29844       96           
   1422000   1258098.6      688.0594       1257410.5      0.24549523     223.51708      315.51847      304.49925      302.64726      303.76756      169426.97      30.638458      90           
   1423000   1258083.4      676.97401      1257406.4      0.24549523     219.91597      303.48966      299.45794      296.61659      304.41435      169478.47     -21.073361      79           
   1424000   1258079        681.82303      1257397.2      0.24549523     221.49118      362.47236      303.02802      296.83971      303.07297      169471.39      28.335388      76           
   1425000   1258085.7      682.60106      1257403.1      0.24549523     221.74393      301.00274      301.29527      300.75365      304.52433      169413.31     -16.397131      75           
   1426000   1258083.5      679.72663      1257403.7      0.24549523     220.81016      316.56303      297.25409      302.96319      304.97456      169483.92      10.343828      81           
   1427000   1258077.7      676.15936      1257401.6      0.24549523     219.65133      315.61967      300.92984      293.49176      303.27064      169471.18      9.4729441      92           
   1428000   1258084.2      678.596        1257405.6      0.24549523     220.44288      317.10153      302.65534      294.14905      302.43248      169431.7      -8.0604746      85           
   1429000   1258081.7      676.03672      1257405.7      0.24549523     219.61149      292.94045      298.2487       298.18802      301.57484      169433.66      19.882551      92           
   1430000   1258078.7      673.42407      1257405.2      0.24549523     218.76277      277.28546      299.85341      292.75669      301.69123      169480.67     -22.288478      91           
   1431000   1258074.7      671.88122      1257402.8      0.24549523     218.26157      259.43666      297.27611      294.9311       301.90199      169415.19      43.923608      88           
   1432000   1258086.6      682.58329      1257404        0.24549523     221.73815      260.65673      301.3371       302.22376      300.97415      169452.53     -43.476696      92           
   1433000   1258090.9      685.70407      1257405.2      0.24549523     222.75194      312.76868      303.23931      302.51893      300.65108      169485.58      57.784407      99           
   1434000   1258080.8      678.37238      1257402.5      0.24549523     220.37024      333.13808      299.8682       298.5272       299.70979      169453.82     -48.114971      95           
   1435000   1258098.1      685.94041      1257412.2      0.24549523     222.82872      301.43144      299.88682      308.26185      299.84476      169448.75      49.125232      92           
   1436000   1258089.1      686.92986      1257402.2      0.24549523     223.15014      324.79574      304.35298      302.22838      300.55285      169423.33     -29.35381       89           
   1437000   1258085.9      679.7436       1257406.2      0.24549523     220.81568      325.76156      299.22424      300.85003      301.38853      169488.31      15.041835      94           
   1438000   1258084.7      681.30225      1257403.4      0.24549523     221.32201      293.12984      302.9306       297.5999       301.47151      169417.63      14.503864      85           
   1439000   1258087.1      682.304        1257404.8      0.24549523     221.64743      307.80402      301.36556      300.90774      301.97181      169471.46     -29.421547      91           
   1440000   1258087.9      685.15657      1257402.7      0.24549523     222.57409      267.89121      301.26552      305.09479      302.44773      169441.1       52.365675      84           
   1441000   1258080.3      682.4688       1257397.9      0.24549523     221.70096      315.78383      302.28858      300.21431      299.61039      169423.31     -54.08072       85           
   1442000   1258086.3      681.14261      1257405.2      0.24549523     221.27015      330.42574      301.18486      300.38644      298.29036      169478.69      62.297133      92           
   1443000   1258079.7      680.49804      1257399.2      0.24549523     221.06076      327.49631      303.84308      296.35726      295.53529      169431.18     -50.976083      95           
   1444000   1258076.5      676.43493      1257400.1      0.24549523     219.74085      316.67244      299.52693      297.86002      296.14955      169479.4       44.715946      92           
   1445000   1258082.4      679.17286      1257403.2      0.24549523     220.63027      315.1617       300.46864      299.78216      296.39388      169428.83     -21.526716      87           
   1446000   1258087.2      685.8207       1257401.4      0.24549523     222.78983      331.06136      304.80127      300.72207      298.12764      169474.2       11.599586      94           
   1447000   1258075        678.06401      1257396.9      0.24549523     220.27006      282.4543       299.27027      299.94304      299.13981      169456.7       15.864464      97           
   1448000   1258069.3      674.47547      1257394.8      0.24549523     219.10432      274.00896      299.77987      294.64512      300.18784      169404.56     -16.935169      100          
   1449000   1258083.8      681.26541      1257402.5      0.24549523     221.31004      291.31296      298.89688      303.66408      301.66631      169472.84      36.706166      103          
   1450000   1258077.1      679.5893       1257397.5      0.24549523     220.76555      293.27484      300.33617      299.74302      300.29891      169447.01     -35.27749       103          
   1451000   1258088.8      689.58785      1257399.3      0.24549523     224.0136       272.15866      305.79867      304.84979      297.87343      169468.59      45.419335      108          
   1452000   1258088.1      686.90119      1257401.2      0.24549523     223.14083      305.21347      305.37609      302.1154       295.98594      169443.48     -36.133166      110          
   1453000   1258074.4      671.22404      1257403.2      0.24549523     218.04808      293.33839      293.70249      300.16711      297.63103      169455.29      36.712446      108          
   1454000   1258074.4      674.81926      1257399.6      0.24549523     219.216        268.22193      299.1206       296.87797      297.70747      169440.83     -33.090315      115          
   1455000   1258069.9      674.91332      1257394.9      0.24549523     219.24655      301.28306      295.68438      301.19139      299.32669      169447.77      33.051373      109          
   1456000   1258075.3      677.35868      1257398        0.24549523     220.04093      299.69037      301.12983      295.92547      299.71724      169477.58     -17.603916      109          
   1457000   1258084.6      684.22518      1257400.4      0.24549523     222.27152      283.0832       302.635        302.25295      300.12885      169419.88      15.168604      115          
   1458000   1258080.6      680.13644      1257400.4      0.24549523     220.94329      272.99353      300.44872      300.79117      299.83483      169442.91      3.7821409      119          
   1459000   1258085.4      683.509        1257401.9      0.24549523     222.03887      296.28798      306.06821      296.93628      296.44652      169457.22     -5.9948637      117          
   1460000   1258074        676.07833      1257397.9      0.24549523     219.62501      281.85277      299.38068      298.37093      295.20871      169432.08      14.779572      113          
   1461000   1258081.3      676.85294      1257404.4      0.24549523     219.87664      304.68798      302.14505      294.67451      295.81422      169456.54     -11.41229       109          
   1462000   1258089.1      684.34026      1257404.7      0.24549523     222.30891      299.3949       302.58598      303.12748      296.6077       169436.58      22.351946      104          
   1463000   1258086.5      683.36445      1257403.2      0.24549523     221.99192      323.44356      300.79721      303.5718       298.92556      169463.64     -16.064146      110          
   1464000   1258087.6      685.34564      1257402.2      0.24549523     222.63551      315.7756       303.18685      302.36296      299.94667      169425.54      25.737868      110          
   1465000   1258087.7      684.13609      1257403.5      0.24549523     222.24258      320.8995       303.03312      300.68298      300.88718      169479.32     -5.1304999      108          
   1466000   1258082        680.91932      1257401.1      0.24549523     221.19761      336.54418      303.34101      296.47071      299.19997      169429.42      8.203653       101          
   1467000   1258087.1      683.93958      1257403.2      0.24549523     222.17875      357.82642      301.17607      303.79762      296.23568      169451.49      5.970741       107          
   1468000   1258075        677.08993      1257397.9      0.24549523     219.95363      332.15749      299.25739      299.49384      293.41926      169449.07     -4.9623261      105          
   1469000   1258085.4      681.41352      1257404        0.24549523     221.35815      376.90381      302.93658      298.95122      291.59378      169454.18      16.185061      110          
   1470000   1258086.3      677.71039      1257408.6      0.24549523     220.15519      347.45471      298.21547      301.4585       293.79755      169444.19     -8.8809139      106          
   1471000   1258093.6      683.57604      1257410        0.24549523     222.06065      374.13455      300.47334      305.05188      293.39759      169462.4       8.884601       95           
   1472000   1258080.9      680.20116      1257400.7      0.24549523     220.96432      358.90222      301.89122      298.33424      295.77288      169465.56      14.392098      101          
   1473000   1258081.7      677.25823      1257404.5      0.24549523     220.0083       335.84267      297.13261      301.2334       299.52918      169441.15     -14.854224      103          
   1474000   1258080.7      678.1306       1257402.6      0.24549523     220.29169      332.83749      299.0942       299.82747      297.82319      169480.99      28.864912      108          
   1475000   1258076.6      680.67319      1257395.9      0.24549523     221.11765      334.36313      301.7088       299.36366      296.66061      169421.15     -25.22105       111          
   1476000   1258080.8      678.68948      1257402.1      0.24549523     220.47324      284.7552       301.26683      298.78523      295.20462      169492.05      39.787182      106          
   1477000   1258074.9      681.31662      1257393.5      0.24549523     221.32667      310.58739      303.42663      299.00002      292.56753      169444.81     -19.470597      108          
   1478000   1258080.3      676.40811      1257403.9      0.24549523     219.73214      344.4673       301.04855      296.57024      290.40825      169464.45      18.734673      103          
   1479000   1258080.1      677.1763       1257402.9      0.24549523     219.98169      317.87028      300.62979      298.59175      290.24936      169453.77      0.59518168     109          
   1480000   1258084.7      679.24402      1257405.4      0.24549523     220.65339      301.09519      300.07659      301.38609      293.55458      169446.1      -1.8637205      106          
   1481000   1258086.5      681.39922      1257405.1      0.24549523     221.35351      303.6132       298.71648      305.57529      295.28468      169474.61      21.280007      113          
   1482000   1258080.6      675.6338       1257405        0.24549523     219.4806       281.51856      296.87772      300.98105      297.73962      169416.04     -21.105482      106          
   1483000   1258067.5      669.96627      1257397.5      0.24549523     217.6395       306.98551      296.78638      293.91949      296.98022      169469.56      29.023008      109          
   1484000   1258078.7      678.46938      1257400.3      0.24549523     220.40174      308.2185       301.60639      297.14948      296.84447      169447.55     -16.178139      104          
   1485000   1258073.6      674.75167      1257398.8      0.24549523     219.19404      299.71197      298.29779      298.63315      293.57714      169478.32      24.773605      101          
   1486000   1258083.2      670.33123      1257412.9      0.24549523     217.75806      282.2358       296.74915      296.14257      292.02265      169455.92     -13.307234      101          
   1487000   1258078.5      675.03675      1257403.5      0.24549523     219.28665      257.62444      299.30685      298.75185      291.05475      169457.22      17.001733      105          
   1488000   1258083.5      679.71329      1257403.8      0.24549523     220.80583      271.92922      303.81424      297.22672      292.36931      169456.95     -8.1079251      104          
   1489000   1258076.6      673.91327      1257402.7      0.24549523     218.92169      280.52912      301.89153      292.7437       292.38708      169450.21      9.4748941      101          
   1490000   1258080.6      672.5431       1257408.1      0.24549523     218.47659      255.86576      295.93038      299.83018      294.23684      169444.72      8.4201849      85           
   1491000   1258070        673.96592      1257396        0.24549523     218.93879      284.99256      299.73339      295.19465      295.22348      169441.23     -11.001599      93           
   1492000   1258078.1      678.20595      1257399.9      0.24549523     220.31617      299.38521      300.43786      299.52978      293.82523      169480.53      21.909349      91           
   1493000   1258075.1      676.72634      1257398.4      0.24549523     219.83552      293.81626      300.67688      297.57492      293.04956      169428.47     -14.428064      93           
   1494000   1258068.8      671.6339       1257397.1      0.24549523     218.18123      343.70657      299.28454      293.40316      290.36001      169467.37      17.026831      100          
   1495000   1258072.6      671.33159      1257401.3      0.24549523     218.08302      331.87256      297.2256       296.41353      290.03532      169422.97     -6.3775999      99           
   1496000   1258078.8      674.69951      1257404.1      0.24549523     219.1771       290.75848      300.86556      295.63801      290.32377      169467.44      4.4504845      96           
   1497000   1258083.6      680.24146      1257403.4      0.24549523     220.97741      333.48566      304.79617      295.70316      290.99711      169446.63      14.356517      98           
   1498000   1258081.9      684.87         1257397.1      0.24549523     222.48099      267.05689      304.55367      302.14939      293.44617      169431.14     -20.122411      102          
   1499000   1258082.7      674.83425      1257407.9      0.24549523     219.22087      282.62304      296.14972      301.54771      295.7527       169499         38.856174      97           
   1500000   1258071        671.64434      1257399.4      0.24549523     218.18462      336.08482      294.895        298.65342      295.91563      169414.8      -33.993531      105          
   1501000   1258080.4      680.72094      1257399.7      0.24549523     221.13317      339.69705      303.08665      297.38662      296.12753      169485.51      42.020396      101          
   1502000   1258081.8      680.39429      1257401.4      0.24549523     221.02705      320.71669      303.98314      296.26886      294.8719       169426.69     -35.121149      96           
   1503000   1258100.1      690.87563      1257409.2      0.24549523     224.43193      366.34365      310.12281      299.91988      292.28462      169482.64      32.761268      98           
   1504000   1258079.3      678.74102      1257400.6      0.24549523     220.48999      319.74063      300.74428      300.07584      291.53531      169434.2      -11.18918       86           
   1505000   1258087.1      680.90292      1257406.2      0.24549523     221.19228      280.53483      300.6871       303.23178      291.95641      169459.39      4.0520808      82           
   1506000   1258081.8      673.38292      1257408.5      0.24549523     218.7494       287.61203      298.30425      297.28039      292.73928      169464.02      16.252286      79           
   1507000   1258086.7      683.73595      1257403        0.24549523     222.1126       262.43261      301.7699       304.79896      293.84061      169446.05     -19.361858      79           
   1508000   1258080.8      677.83815      1257402.9      0.24549523     220.19669      268.83649      297.84968      302.78462      295.98235      169471.93      35.033195      78           
   1509000   1258071.9      672.60666      1257399.3      0.24549523     218.49723      286.45497      299.53781      293.6879       295.67378      169430.56     -37.290269      84           
   1510000   1258081.2      681.23541      1257399.9      0.24549523     221.30029      316.25348      299.98525      303.63882      294.15637      169470.74      36.556906      84           
   1511000   1258080.4      676.00294      1257404.4      0.24549523     219.60052      282.30074      299.45536      298.8359       292.66441      169426.62     -29.587115      82           
   1512000   1258082.4      678.78359      1257403.6      0.24549523     220.50381      279.41134      300.78015      300.17962      293.22121      169493.81      31.118188      91           
   1513000   1258075.3      671.69712      1257403.6      0.24549523     218.20176      274.0819       298.61619      294.67803      293.56518      169435.83     -11.776603      93           
   1514000   1258087.2      680.5225       1257406.7      0.24549523     221.0687       294.59201      302.63892      299.36         293.02091      169474.33      8.1401988      84           
   1515000   1258072.7      670.29948      1257402.4      0.24549523     217.74774      315.80086      300.56883      289.50875      293.56993      169445.4       10.121475      85           
   1516000   1258088.3      678.8712       1257409.4      0.24549523     220.53228      310.27544      300.28045      300.39688      294.06119      169462.64     -10.696896      82           
   1517000   1258080.8      677.75696      1257403.1      0.24549523     220.17031      295.40588      298.53117      301.49704      295.37688      169456.59      22.497272      73           
   1518000   1258083.2      681.17805      1257402.1      0.24549523     221.28166      319.99644      303.57013      298.04693      294.72402      169420.98     -17.232586      66           
   1519000   1258080.4      677.92243      1257402.5      0.24549523     220.22407      307.01649      302.4588       295.9716       294.29692      169491.68      23.184674      62           
   1520000   1258082.1      677.74662      1257404.3      0.24549523     220.16696      337.45497      301.88477      296.75014      292.66968      169414.8      -7.3157079      64           
   1521000   1258088.1      680.38287      1257407.7      0.24549523     221.02335      338.13158      300.17277      302.6793       291.96513      169479.13      14.602416      74           
   1522000   1258079.6      673.92511      1257405.6      0.24549523     218.92553      311.4961       297.78445      298.5642       292.33549      169445.58     -6.5571234      66           
   1523000   1258086.5      676.44723      1257410        0.24549523     219.74485      323.48356      298.43378      300.17592      293.72264      169433.74      10.538543      69           
   1524000   1258081.2      682.79374      1257398.4      0.24549523     221.80652      304.54571      302.91481      301.04708      295.22911      169456         0.78668085     63           
   1525000   1258089.1      685.43899      1257403.6      0.24549523     222.66583      330.47362      303.63157      302.40959      297.08597      169468.83     -2.4566941      67           
   1526000   1258081.4      676.86026      1257404.5      0.24549523     219.87902      348.58704      297.61641      300.81127      297.06081      169443.55      15.092097      60           
   1527000   1258081.8      680.38857      1257401.4      0.24549523     221.0252       382.82759      300.86764      300.43668      294.87412      169434.19     -11.382789      64           
   1528000   1258083.9      680.94134      1257403        0.24549523     221.20476      329.0327       302.05454      300.39939      292.96969      169467.98      26.620393      69           
   1529000   1258092.2      684.45817      1257407.7      0.24549523     222.34721      302.5442       305.60282      299.78447      292.57486      169440.17     -18.523853      66           
   1530000   1258079.9      673.98231      1257405.9      0.24549523     218.94411      323.88864      299.58847      295.68634      292.7409       169485.08      17.657619      72           
   1531000   1258080.9      678.57367      1257402.3      0.24549523     220.43562      312.57443      302.5203       296.00985      296.45194      169425.87     -3.8767428      78           
   1532000   1258081.5      677.29934      1257404.2      0.24549523     220.02165      276.56212      298.84905      300.20533      297.00084      169477.98     -0.92287942     76           
   1533000   1258073.4      671.52539      1257401.9      0.24549523     218.14598      290.12431      297.44653      294.57294      298.9571       169446.57      14.220737      81           
   1534000   1258088.3      682.72968      1257405.6      0.24549523     221.78571      276.577        299.53116      305.322        299.17629      169438.65     -18.979124      79           
   1535000   1258079.9      679.90585      1257399.9      0.24549523     220.86838      266.56248      300.56985      300.42679      299.16316      169486.03      28.481738      82           
   1536000   1258084.5      676.09242      1257408.4      0.24549523     219.62958      195.9511       297.54036      301.67393      296.99943      169382.28     -18.444212      75           
   1537000   1258087.3      674.51622      1257412.8      0.24549523     219.11756      244.19416      299.67057      296.64884      294.48225      169504.89      22.959874      76           
   1538000   1258083.6      678.8062       1257404.8      0.24549523     220.51116      262.98101      300.01406      301.43132      293.57473      169431.99     -1.745443       80           
   1539000   1258085.6      685.07039      1257400.5      0.24549523     222.54609      268.22276      301.67907      306.5632       293.44779      169468        -4.9633757      77           
   1540000   1258077.5      680.06555      1257397.5      0.24549523     220.92026      320.95658      300.12239      302.67632      292.86686      169434.42      16.804806      78           
   1541000   1258079.5      670.43669      1257409.1      0.24549523     217.79231      358.75634      296.19455      295.59147      294.00833      169454.5      -15.041849      79           
   1542000   1258076.6      677.29946      1257399.3      0.24549523     220.0217       304.49437      299.68062      298.39652      298.05405      169460.25      20.533196      78           
   1543000   1258085.6      684.27025      1257401.3      0.24549523     222.28617      333.71634      298.28075      308.99499      296.895        169402.89     -12.179503      80           
   1544000   1258088.3      686.05764      1257402.3      0.24549523     222.8668       315.99559      299.08637      310.01897      297.44979      169488.67      16.810703      81           
   1545000   1258083.2      675.70104      1257407.5      0.24549523     219.50245      287.91994      297.21827      301.09971      294.9429       169423.05      7.3988601      73           
   1546000   1258078.1      675.25169      1257402.8      0.24549523     219.35647      271.83811      298.93394      298.68104      293.12746      169467.9      -12.240544      73           
   1547000   1258091.7      681.99832      1257409.7      0.24549523     221.54812      315.52405      302.42386      301.62372      291.69005      169454.59      30.935474      72           
   1548000   1258088.7      681.43389      1257407.3      0.24549523     221.36477      303.17271      303.38105      298.99271      294.04066      169450.66     -35.565084      74           
   1549000   1258084.4      683.87115      1257400.5      0.24549523     222.15652      299.54368      304.70588      299.58681      295.71132      169482.89      45.720768      79           
   1550000   1258084.7      678.86731      1257405.9      0.24549523     220.53101      304.32151      298.43422      302.25965      297.74727      169420.68     -32.018827      81           
   1551000   1258081.3      679.82836      1257401.5      0.24549523     220.84321      316.04651      299.53332      301.04207      299.89891      169484.93      29.517471      84           
   1552000   1258086.9      684.08554      1257402.8      0.24549523     222.22616      278.24486      303.99911      299.78469      300.88934      169431.71     -7.5459952      78           
   1553000   1258087.9      679.59367      1257408.3      0.24549523     220.76697      270.15665      298.73588      302.65875      299.47655      169440.69     -3.7267164      76           
   1554000   1258094.9      686.54141      1257408.4      0.24549523     223.02396      292.47631      303.12424      305.45556      295.27057      169462.78      22.924848      79           
   1555000   1258085.3      678.1762       1257407.1      0.24549523     220.30651      291.82719      300.53284      299.80041      292.49912      169462.36     -25.12952       76           
   1556000   1258083        677.27924      1257405.7      0.24549523     220.01513      287.51727      300.00741      299.71992      291.89132      169454.38      35.021602      76           
   1557000   1258089.3      681.17413      1257408.1      0.24549523     221.28039      263.16636      300.70381      303.32287      293.48947      169465.22     -30.56386       76           
   1558000   1258081.3      677.09536      1257404.2      0.24549523     219.95539      335.82686      301.81144      295.58018      294.21293      169462.53      33.145901      76           
   1559000   1258091.4      684.20836      1257407.2      0.24549523     222.26606      317.67092      298.01886      309.60447      296.684        169466.34     -23.377536      70           
   1560000   1258075.2      676.11641      1257399        0.24549523     219.63738      333.35625      301.01284      294.70902      297.46891      169438.27      19.9495        80           
   1561000   1258083.2      679.60022      1257403.6      0.24549523     220.7691       311.48865      297.34752      304.92322      296.95672      169477.88     -10.983531      78           
   1562000   1258080.5      676.22676      1257404.3      0.24549523     219.67323      323.09713      298.77657      299.16886      294.48699      169436.87      12.860699      73           
   1563000   1258081.8      677.55851      1257404.2      0.24549523     220.10585      316.17039      299.25794      300.79892      292.00664      169430.87      10.925618      81           
   1564000   1258084.3      677.92279      1257406.4      0.24549523     220.22418      335.71946      299.8117       300.18722      291.87299      169468.45     -10.332677      83           
   1565000   1258081.5      679.24537      1257402.3      0.24549523     220.65382      296.65529      302.46454      297.9237       293.48915      169418.28      18.056054      78           
   1566000   1258097.6      680.9878       1257416.6      0.24549523     221.21986      225.65317      302.47379      299.98705      296.55437      169473.73     -19.775262      70           
   1567000   1258095.2      681.18881      1257414        0.24549523     221.28516      292.35653      298.17416      305.20834      299.44979      169467.52      28.174902      87           
   1568000   1258084.2      681.67901      1257402.6      0.24549523     221.4444       294.21624      303.39611      298.16311      298.58512      169443.74     -14.357452      89           
   1569000   1258084.9      682.39298      1257402.5      0.24549523     221.67633      271.36198      301.95175      301.43676      299.02991      169483.27      12.875363      94           
   1570000   1258086.9      679.58555      1257407.3      0.24549523     220.76433      309.44213      299.69081      301.73303      295.76083      169417.77     -2.9405612      86           
   1571000   1258090.6      682.30351      1257408.3      0.24549523     221.64727      364.10335      302.72817      300.53205      292.7696       169490.62      3.4950574      87           
   1572000   1258089.7      682.60199      1257407.1      0.24549523     221.74423      363.69663      302.25085      302.02676      291.0015       169415.99      3.558614       92           
   1573000   1258091.9      685.07641      1257406.8      0.24549523     222.54805      353.74907      304.10103      302.46228      290.96032      169482.62     -4.1577153      90           
   1574000   1258076        675.73401      1257400.2      0.24549523     219.51316      304.9133       299.1441       298.4435       294.02727      169450.11      9.0597165      85           
   1575000   1258082.7      674.76885      1257407.9      0.24549523     219.19962      362.7475       299.16241      296.20907      294.39281      169457.28      1.33161        92           
   1576000   1258081.4      683.9594       1257397.4      0.24549523     222.18519      330.97906      304.32486      300.17581      294.3655       169447.87      0.097957781    90           
   1577000   1258082.3      680.0207       1257402.3      0.24549523     220.90569      313.80587      299.53668      302.22694      296.45185      169471.16      10.444719      88           
   1578000   1258083.2      679.4425       1257403.8      0.24549523     220.71786      296.4282       303.50824      296.35309      294.2119       169463.58     -1.8731455      83           
   1579000   1258093.1      684.58237      1257408.5      0.24549523     222.38756      328.82417      304.24511      301.41758      293.18789      169449.86      2.8207803      88           
   1580000   1258083.6      678.70863      1257404.9      0.24549523     220.47947      295.05288      300.18089      301.10597      291.92868      169438.73      7.2909745      98           
   1581000   1258079.5      679.4613       1257400        0.24549523     220.72397      304.07373      299.1988       303.5926       291.00248      169464.94     -11.655035      109          
   1582000   1258074.8      678.47715      1257396.3      0.24549523     220.40427      255.1621       298.34498      303.6534       294.20298      169449.99      21.664976      104          
   1583000   1258072.3      673.22221      1257399.1      0.24549523     218.69719      262.66512      296.67175      299.36389      295.00742      169468.84     -14.317432      105          
   1584000   1258080.5      678.26116      1257402.3      0.24549523     220.3341       290.02966      299.0325       301.86712      293.79091      169464.16      28.706586      99           
   1585000   1258081        676.1988       1257404.8      0.24549523     219.66414      255.44725      297.74593      302.06297      292.68373      169431.62     -19.155405      93           
   1586000   1258075.4      671.72423      1257403.7      0.24549523     218.21057      230.29639      295.88731      299.5097       293.48891      169463.95      19.478015      93           
   1587000   1258079.1      672.8873       1257406.2      0.24549523     218.5884       242.02201      297.32201      299.30516      290.96568      169435.02     -9.2856344      96           
   1588000   1258086.9      677.94257      1257409        0.24549523     220.23061      247.90199      298.84228      303.09075      291.38119      169466.9       13.399792      99           
   1589000   1258085.6      679.99166      1257405.6      0.24549523     220.89626      269.62449      304.89088      295.961        292.06527      169432.08     -3.2183396      101          
   1590000   1258075.4      674.21956      1257401.2      0.24549523     219.02118      251.51172      297.23922      300.14344      294.07532      169471.65      2.4538556      102          
   1591000   1258076.7      676.30879      1257400.4      0.24549523     219.69987      236.60941      298.05495      300.98539      296.99905      169485.08      7.2919664      106          
   1592000   1258083.7      680.74473      1257403        0.24549523     221.1409       300.4589       299.32304      303.13124      298.26534      169446.77     -3.3474379      111          
   1593000   1258085.5      680.14757      1257405.4      0.24549523     220.94691      276.1661       300.69996      300.77383      298.21649      169464.38      11.946939      114          
   1594000   1258077.1      674.7577       1257402.4      0.24549523     219.196        285.07109      301.19981      293.90548      295.67733      169457.76     -13.974568      120          
   1595000   1258087        680.6603       1257406.3      0.24549523     221.11347      300.43706      303.40302      298.30951      292.77267      169450.11      28.412352      112          
   1596000   1258089.6      682.60381      1257407        0.24549523     221.74482      278.58881      302.23991      302.76084      293.13336      169439.39     -28.539314      110          
   1597000   1258085.4      674.12555      1257411.3      0.24549523     218.99065      317.91397      301.41613      293.20113      291.91455      169457.31      30.849878      113          
   1598000   1258075.6      675.23719      1257400.3      0.24549523     219.35176      306.36068      300.96043      295.17055      292.9831       169471.62     -22.319363      105          
   1599000   1258087        679.17427      1257407.8      0.24549523     220.63073      313.79789      296.07285      307.02783      293.93247      169402.31      24.840455      101          
   1600000   1258090.3      680.01586      1257410.3      0.24549523     220.90412      318.86224      300.50146      300.86216      295.69644      169444.25     -10.767345      95           
   1601000   1258079.9      680.31343      1257399.6      0.24549523     221.00079      343.437        300.71012      300.81409      294.80062      169430.31      7.6558178      93           
   1602000   1258076.1      677.62802      1257398.5      0.24549523     220.12843      305.55321      299.81783      299.69699      293.8633       169447.29      3.258367       92           
   1603000   1258078.6      676.04249      1257402.6      0.24549523     219.61337      299.05051      300.15215      297.71762      292.2761       169476.28     -6.2817278      96           
   1604000   1258084.1      679.87748      1257404.2      0.24549523     220.85917      252.66407      303.35829      298.16467      292.68965      169458.16      16.440435      90           
   1605000   1258091.1      680.4428       1257410.7      0.24549523     221.04281      249.99859      302.32556      300.28797      293.27794      169441.41     -10.563471      93           
   1606000   1258078.2      674.47198      1257403.8      0.24549523     219.10318      259.55278      299.72512      296.30312      294.97764      169446.92      21.783266      95           
   1607000   1258093.9      682.51451      1257411.4      0.24549523     221.71581      283.21946      301.62105      302.70013      296.52494      169458.18     -11.730557      85           
   1608000   1258079.1      669.14         1257409.9      0.24549523     217.37108      314.02636      298.44361      290.69264      295.6288       169455.95      22.959453      93           
   1609000   1258075.5      675.93715      1257399.6      0.24549523     219.57914      332.07635      298.78692      297.91818      297.37387      169422.57     -16.948672      88           
   1610000   1258074.3      673.97754      1257400.3      0.24549523     218.94256      330.4786       299.20126      295.13856      295.89701      169450.65      12.955528      98           
   1611000   1258083.8      679.31748      1257404.5      0.24549523     220.67725      322.67288      300.52964      300.1425       294.99886      169458.49     -0.40958539     86           
   1612000   1258087.4      684.11114      1257403.3      0.24549523     222.23448      271.55871      300.98375      305.80204      295.86384      169421.43     -5.0139068      94           
   1613000   1258086        680.63936      1257405.4      0.24549523     221.10667      323.03125      300.63553      301.08101      296.59331      169451.45      20.79267       98           
   1614000   1258080.9      673.72356      1257407.2      0.24549523     218.86006      316.6392       299.74266      293.67041      298.18145      169478.77     -15.782845      100          
   1615000   1258086.2      677.78363      1257408.4      0.24549523     220.17898      305.83906      299.21185      299.4295       298.78961      169456.95      21.017827      107          
   1616000   1258077.6      682.45324      1257395.1      0.24549523     221.69591      289.19519      301.71775      301.75779      298.51531      169440.08     -8.4501548      109          
   1617000   1258077.7      676.84823      1257400.8      0.24549523     219.87511      308.92565      299.47261      297.90965      298.7203       169460.5       10.151207      109          
   1618000   1258085.1      685.82164      1257399.3      0.24549523     222.79014      306.80007      302.34078      304.5988       298.75689      169457.12      0.060703566    108          
   1619000   1258086.4      684.6943       1257401.7      0.24549523     222.42392      309.11246      302.67965      302.61195      299.01286      169421.81      5.6474046      98           
   1620000   1258085.7      682.04365      1257403.7      0.24549523     221.56285      305.40154      301.22367      301.41758      299.70932      169470.38      11.872445      95           
   1621000   1258082.7      677.27122      1257405.4      0.24549523     220.01252      315.29549      300.57829      296.30546      299.92159      169453.89     -2.8651671      99           
   1622000   1258087.4      681.12814      1257406.3      0.24549523     221.26545      306.77622      298.11672      304.33028      301.9925       169439.86      13.107515      105          
   1623000   1258080.1      684.45594      1257395.6      0.24549523     222.34649      279.82588      302.00928      302.51201      303.81119      169456.58     -8.4117684      107          
   1624000   1258086.6      686.31285      1257400.3      0.24549523     222.94971      330.613        302.49037      303.12003      303.95412      169437.15      11.821652      120          
   1625000   1258074.1      674.2119       1257399.9      0.24549523     219.0187       269.40777      295.66389      299.31395      305.10458      169476.63     -3.5288985      111          
   1626000   1258068.4      674.87784      1257393.5      0.24549523     219.23503      313.74676      294.16164      301.56128      305.43258      169449.51      13.195003      111          
   1627000   1258076.6      682.9476       1257393.6      0.24549523     221.8565       290.66275      300.13455      303.06629      305.1201       169470.02     -9.4024         112          
   1628000   1258086.9      681.85675      1257405.1      0.24549523     221.50214      283.70124      301.18155      300.5782       303.60396      169427.06      16.122454      107          
   1629000   1258082.2      679.26716      1257402.9      0.24549523     220.6609       293.55562      299.57133      300.00468      302.27093      169457.29     -4.1937164      109          
   1630000   1258082.7      677.64249      1257405        0.24549523     220.13313      305.22553      297.78435      300.77508      301.41428      169488         7.2489445      110          
   1631000   1258082.2      681.15207      1257401        0.24549523     221.27322      288.44224      304.47203      294.76143      303.31247      169426.77      6.5670702      108          
   1632000   1258085.6      679.56433      1257406.1      0.24549523     220.75744      270.85485      298.33727      301.50439      306.3591       169449.98     -10.397819      103          
   1633000   1258090.3      686.89659      1257403.4      0.24549523     223.13933      266.44691      302.75604      304.0211       306.07483      169467.04      24.74236       103          
   1634000   1258088.4      682.28961      1257406.1      0.24549523     221.64275      292.32376      299.74255      302.36371      306.50448      169449.68     -29.60689       109          
   1635000   1258075.5      679.80947      1257395.7      0.24549523     220.83707      289.7045       300.28481      298.2855       307.39981      169436.74      42.544022      104          
   1636000   1258086.5      682.79169      1257403.7      0.24549523     221.80585      313.57373      300.10633      302.22057      305.95888      169426.72     -37.533217      107          
   1637000   1258080.1      681.37374      1257398.7      0.24549523     221.34523      297.59628      300.05913      300.9253       306.27369      169510.83      43.470747      109          
   1638000   1258084.4      679.70529      1257404.7      0.24549523     220.80323      302.07839      297.52758      302.79016      304.84078      169392.4      -35.303859      101          
   1639000   1258085.4      684.4703       1257401        0.24549523     222.35115      308.61799      301.03789      302.86426      306.51229      169483.16      40.283849      95           
   1640000   1258081.1      680.66726      1257400.5      0.24549523     221.11573      283.70846      301.74865      297.05263      307.80687      169438.66     -23.636366      91           
   1641000   1258082.7      677.95532      1257404.7      0.24549523     220.23475      284.33386      296.34406      302.64831      304.85391      169464.5       15.878795      103          
   1642000   1258084.5      682.84411      1257401.6      0.24549523     221.82288      291.86142      301.01695      300.85872      307.55016      169451.92      2.9481367      106          
   1643000   1258083.9      684.20119      1257399.7      0.24549523     222.26373      282.14239      301.14524      302.10573      308.90722      169460.96     -10.407486      98           
   1644000   1258076.4      675.63203      1257400.8      0.24549523     219.48003      298.60451      295.56951      299.62433      309.1729       169473.98      29.90158       95           
   1645000   1258080.9      681.61369      1257399.3      0.24549523     221.42318      279.95284      299.20354      301.46253      310.45549      169411.4      -25.471226      95           
   1646000   1258077.3      678.78163      1257398.5      0.24549523     220.50318      240.03022      298.25475      299.74897      311.32989      169499.9       47.371552      94           
   1647000   1258084.6      675.13011      1257409.5      0.24549523     219.31698      293.77453      295.70238      298.85504      309.24606      169429.8      -46.453902      93           
   1648000   1258097.4      684.89878      1257412.5      0.24549523     222.49034      320.91234      299.91436      304.69205      307.07992      169467.72      51.906309      102          
   1649000   1258086.5      685.84589      1257400.7      0.24549523     222.79801      290.9394       301.63301      304.10064      305.81014      169440        -41.982996      107          
   1650000   1258082.4      682.23553      1257400.1      0.24549523     221.62518      302.26835      302.03367      298.60746      306.80013      169472.46      39.476059      109          
   1651000   1258080.3      675.28864      1257405        0.24549523     219.36848      321.76497      298.01047      295.89862      306.36537      169424.21     -20.025973      108          
   1652000   1258080.1      673.88728      1257406.2      0.24549523     218.91324      339.18449      295.47631      297.41913      307.68359      169493.46      5.4724065      101          
   1653000   1258080.3      680.42285      1257399.9      0.24549523     221.03633      301.04157      302.38806      294.91318      310.42226      169455.43      15.707934      110          
   1654000   1258084.1      683.25136      1257400.8      0.24549523     221.95518      310.9856       302.74654      297.11344      312.5714       169436.86     -19.488546      108          
   1655000   1258082.4      681.04596      1257401.4      0.24549523     221.23875      313.61284      299.34736      299.42361      312.74093      169462.44      34.799343      103          
   1656000   1258080.9      681.75857      1257399.1      0.24549523     221.47024      364.75315      302.48671      295.21187      310.89822      169436.16     -26.858825      113          
   1657000   1258084.1      684.13112      1257399.9      0.24549523     222.24097      356.54449      304.12956      296.2847       308.86706      169470.84      39.62004       114          
   1658000   1258089.3      678.33845      1257410.9      0.24549523     220.35921      308.40122      299.91464      296.54039      308.15425      169415.96     -42.741032      108          
   1659000   1258082.7      675.5842       1257407.2      0.24549523     219.46449      281.52053      300.65069      292.76398      307.11971      169499.29      46.019696      105          
   1660000   1258081.8      679.76719      1257402        0.24549523     220.82334      341.17264      299.53075      298.27009      308.47178      169419.88     -23.272651      101          
   1661000   1258085.2      680.9967       1257404.2      0.24549523     221.22275      347.63         299.29119      299.70186      309.72499      169435.41      12.521631      102          
   1662000   1258078.1      675.9161       1257402.2      0.24549523     219.57231      293.32324      299.06328      294.11414      312.36232      169476.48      15.178685      102          
   1663000   1258082.4      684.49583      1257397.9      0.24549523     222.35944      320.33965      300.62166      301.4229       313.43849      169425.93     -19.293988      108          
   1664000   1258086.9      688.40455      1257398.5      0.24549523     223.6292       314.80118      304.90135      299.93571      313.3704       169464.15      39.371633      99           
   1665000   1258090.8      685.56562      1257405.3      0.24549523     222.70697      320.70324      303.29843      299.05966      312.23425      169424.73     -34.989956      104          
   1666000   1258091        684.13244      1257406.9      0.24549523     222.2414       308.11408      302.5322       299.24328      309.99781      169507.22      35.783247      96           
   1667000   1258088.5      686.3625       1257402.1      0.24549523     222.96584      312.66341      304.30823      299.58499      309.15298      169415.62     -18.63861       92           
   1668000   1258091.1      684.13043      1257406.9      0.24549523     222.24075      320.80797      304.05466      296.89552      309.49068      169502.7       12.864039      95           
   1669000   1258080.2      677.90296      1257402.3      0.24549523     220.21774      299.97607      299.7973       295.31278      311.71859      169441.74      6.2879368      89           
   1670000   1258087.6      686.45968      1257401.2      0.24549523     222.99741      302.6515       299.20117      306.17563      313.77467      169458.29     -2.6995222      85           
   1671000   1258089        683.30424      1257405.7      0.24549523     221.97235      323.6269       299.82132      300.9599       314.24367      169471.23      19.543436      83           
   1672000   1258084.3      683.86882      1257400.5      0.24549523     222.15576      302.28474      299.3396       302.08226      316.374        169438.21     -17.925271      81           
   1673000   1258084        684.26908      1257399.8      0.24549523     222.28578      299.35825      303.75435      296.52601      314.38313      169467.52      22.174132      90           
   1674000   1258088.3      685.62214      1257402.7      0.24549523     222.72533      261.98931      302.42833      300.6094       314.6543       169439.03     -1.7879056      86           
   1675000   1258080.4      677.64735      1257402.8      0.24549523     220.13471      296.97436      298.00486      297.57611      312.45709      169501.03     -0.2957004      89           
   1676000   1258091.9      683.10348      1257408.8      0.24549523     221.90714      277.76815      301.17117      299.68406      312.88132      169420.74      16.84785       90           
   1677000   1258080.1      674.67939      1257405.5      0.24549523     219.17056      245.04778      295.79761      297.95405      312.20722      169454.67     -21.755254      81           
   1678000   1258082.5      682.08259      1257400.4      0.24549523     221.5755       303.84528      299.9503       299.97326      312.55567      169463.39      35.06313       83           
   1679000   1258070.5      672.44917      1257398        0.24549523     218.44607      314.11268      290.84286      301.21466      314.33999      169430.73     -38.048818      83           
   1680000   1258083.2      681.53435      1257401.7      0.24549523     221.3974       313.03841      299.62601      298.8749       315.51341      169484.16      47.12865       82           
   1681000   1258077.7      677.3819       1257400.3      0.24549523     220.04847      313.36232      297.58407      296.86731      314.98489      169414.65     -27.27038       87           
   1682000   1258086.3      690.33245      1257395.9      0.24549523     224.25548      332.65917      303.6958       303.21051      315.72929      169487.57      24.947868      89           
   1683000   1258085        683.32995      1257401.7      0.24549523     221.98071      331.66282      301.18185      298.53337      315.5495       169416.97     -0.84375771     86           
   1684000   1258083.6      679.13296      1257404.4      0.24549523     220.61731      315.21961      297.49809      299.39812      314.37706      169451.45     -12.369813      88           
   1685000   1258092.8      685.41776      1257407.4      0.24549523     222.65894      269.58281      301.15977      302.17907      314.43708      169451.4       42.224681      80           
   1686000   1258087.4      683.14313      1257404.3      0.24549523     221.92002      264.1362       300.68778      300.1701       314.57172      169470.95     -47.443809      86           
   1687000   1258092.5      688.58127      1257403.9      0.24549523     223.68661      260.66756      303.17909      302.91065      315.59188      169453.7       59.061684      89           
   1688000   1258082.1      685.69031      1257396.4      0.24549523     222.74748      312.54473      302.03975      300.412        315.3452       169438.24     -50.401876      90           
   1689000   1258083.1      683.9402       1257399.2      0.24549523     222.17895      340.44333      300.48892      299.89267      316.25876      169504.42      52.976077      94           
   1690000   1258092.5      688.0205       1257404.4      0.24549523     223.50444      302.99577      301.63246      303.09668      318.80187      169422.54     -34.036426      88           
   1691000   1258091.8      686.54722      1257405.3      0.24549523     223.02584      314.07011      301.98935      300.83927      317.89552      169470.98      30.528542      92           
   1692000   1258085.3      686.27842      1257399        0.24549523     222.93852      335.20563      302.97596      299.11725      316.44424      169440.73     -13.760038      88           
   1693000   1258085.8      682.83148      1257403        0.24549523     221.81878      297.9451       303.09803      295.30954      316.08014      169493.96      6.2637857      91           
   1694000   1258084.1      681.1262       1257403        0.24549523     221.26482      314.56391      298.92278      299.56504      314.94312      169410.78      24.560295      101          
   1695000   1258088.8      680.016        1257408.8      0.24549523     220.90417      299.34922      296.91023      301.40525      315.14569      169455.34     -37.697515      97           
   1696000   1258084.2      681.77486      1257402.5      0.24549523     221.47553      289.60231      297.03128      303.29272      316.12131      169467.39      56.37708       101          
   1697000   1258083.1      680.64047      1257402.4      0.24549523     221.10702      284.14557      301.46105      295.00171      317.46568      169444.54     -61.36205       99           
   1698000   1258088.5      685.62376      1257402.9      0.24549523     222.72585      349.83854      304.19316      295.76281      318.16726      169471.82      79.381343      100          
   1699000   1258089.5      683.74302      1257405.7      0.24549523     222.11489      308.60735      302.41977      296.81145      317.96082      169426.56     -64.052702      98           
   1700000   1258093.1      686.40695      1257406.7      0.24549523     222.98028      292.98665      301.25857      302.43678      316.57804      169480.56      60.236904      96           
   1701000   1258082.6      678.86704      1257403.7      0.24549523     220.53092      298.59781      297.89842      298.17052      316.36458      169399.56     -36.806302      100          
   1702000   1258095.5      690.50425      1257405        0.24549523     224.31129      289.3234       305.52907      301.5308       315.61656      169480.57      25.208698      100          
   1703000   1258088.3      685.97885      1257402.3      0.24549523     222.84121      287.37358      301.70506      301.96227      314.47423      169421.89      0.29382608     114          
   1704000   1258093.7      681.19176      1257412.5      0.24549523     221.28611      265.53557      297.66245      301.90546      316.39857      169473.82     -10.952941      104          
   1705000   1258087.6      681.88929      1257405.7      0.24549523     221.51271      294.90613      299.87192      298.50207      318.31744      169431.17      32.716517      103          
   1706000   1258092        691.67231      1257400.3      0.24549523     224.69073      316.03266      301.84362      306.92833      319.42018      169423.96     -36.421615      95           
   1707000   1258087.2      689.60018      1257397.6      0.24549523     224.0176       264.14461      302.06059      303.94458      322.53856      169505.22      43.207988      89           
   1708000   1258081.9      678.52428      1257403.3      0.24549523     220.41958      271.93363      296.86753      298.48995      320.62711      169406.81     -27.625106      83           
   1709000   1258081        683.92253      1257397.1      0.24549523     222.17321      296.39509      302.40396      296.73911      319.73447      169482.09      19.005598      88           
   1710000   1258087.2      682.04626      1257405.2      0.24549523     221.5637       290.55861      298.69631      300.24364      319.19136      169439.68     -0.81421422     90           
   1711000   1258090.5      680.69633      1257409.8      0.24549523     221.12517      248.87006      297.17036      302.12407      316.90747      169446.67     -2.7265493      96           
   1712000   1258092.3      683.45235      1257408.8      0.24549523     222.02047      286.45153      298.47379      303.45241      315.57242      169429.83      23.751831      99           
   1713000   1258101.7      690.58648      1257411.2      0.24549523     224.338        270.98051      304.0331       303.53387      317.19557      169452.69     -13.537292      92           
   1714000   1258088.8      681.928        1257406.8      0.24549523     221.52528      279.70302      297.82752      301.68167      318.68327      169450.41      26.672129      88           
   1715000   1258079.2      684.69249      1257394.5      0.24549523     222.42333      277.73138      302.94284      297.05461      319.98977      169435.61     -17.335871      86           
   1716000   1258082.2      678.12637      1257404        0.24549523     220.29032      273.36265      297.19499      297.20099      321.71332      169457.28      18.780306      87           
   1717000   1258078        681.28062      1257396.8      0.24549523     221.31498      301.24664      298.36485      298.48493      323.62665      169477.43     -0.49854523     95           
   1718000   1258091.9      688.06838      1257403.8      0.24549523     223.51999      290.30312      303.92467      299.09772      321.91413      169442.65      2.529677       97           
   1719000   1258098.8      691.99504      1257406.8      0.24549523     224.79557      301.49329      305.35604      302.42881      318.81239      169428.89      17.619419      98           
   1720000   1258093.4      681.53121      1257411.9      0.24549523     221.39638      304.11461      298.59592      300.07451      317.34749      169439.66     -12.652869      95           
   1721000   1258086.5      683.99692      1257402.5      0.24549523     222.19737      308.33109      301.36092      298.70956      317.9889       169448.78      20.918612      94           
   1722000   1258092.7      685.08933      1257407.6      0.24549523     222.55225      300.40819      298.96631      303.29684      319.76556      169442.44     -19.095153      108          
   1723000   1258079.8      679.87357      1257399.9      0.24549523     220.8579       308.58249      299.16867      296.44043      319.95955      169433.91      20.503715      107          
   1724000   1258082.4      681.45567      1257400.9      0.24549523     221.37184      270.60454      299.23894      298.28285      322.07193      169486.62     -4.2244835      96           
   1725000   1258097        690.63325      1257406.3      0.24549523     224.3532       293.92636      300.44066      307.0336       323.43479      169439.84     -3.0785134      97           
   1726000   1258084.4      685.38258      1257399.1      0.24549523     222.64751      298.86193      300.38046      300.74906      322.77091      169472.58      26.568911      92           
   1727000   1258082.8      683.26257      1257399.5      0.24549523     221.95882      321.41781      298.91708      300.35617      321.41528      169431.6      -21.868861      98           
   1728000   1258087.3      683.74381      1257403.6      0.24549523     222.11515      320.65025      300.4192       299.60667      318.06375      169446.52      35.112726      109          
   1729000   1258080.9      679.77895      1257401.1      0.24549523     220.82716      355.21988      299.12822      296.6758       316.21578      169486.02     -30.602461      104          
   1730000   1258076.9      673.48295      1257403.4      0.24549523     218.7819       322.29438      298.26585      290.89951      315.43989      169417.61      26.998638      101          
   1731000   1258072.3      671.21569      1257401.1      0.24549523     218.04537      297.29969      293.53356      295.12601      317.53979      169483.49     -8.4363711      106          
   1732000   1258082.1      683.55942      1257398.5      0.24549523     222.05525      288.78215      298.99827      301.81903      318.88576      169420.63      4.6243351      103          
   1733000   1258084.6      681.50491      1257403.1      0.24549523     221.38784      289.05328      300.49023      296.20391      322.14092      169471.51      13.796116      107          
   1734000   1258082.5      681.87544      1257400.6      0.24549523     221.50821      294.06934      298.85665      299.15417      321.69574      169447.93     -20.526961      108          
   1735000   1258085.9      684.57897      1257401.3      0.24549523     222.38645      331.35169      301.66588      297.91192      320.61741      169460.66      37.165357      103          
   1736000   1258089.2      682.65429      1257406.6      0.24549523     221.76122      314.19073      299.24703      299.52825      320.42428      169434.47     -35.397939      111          
   1737000   1258096.2      685.15064      1257411.1      0.24549523     222.57216      313.31358      301.29097      300.10332      318.22383      169455.23      42.397868      105          
   1738000   1258086.3      681.38878      1257404.9      0.24549523     221.35012      343.96328      296.48899      302.79262      316.01742      169422.88     -28.483408      102          
   1739000   1258090.4      687.82384      1257402.6      0.24549523     223.44056      304.00677      300.14056      305.69871      316.24282      169433.93      26.55318       109          
   1740000   1258084.9      679.0229       1257405.9      0.24549523     220.58156      285.91074      299.51757      296.55961      314.99968      169472.4      -10.04149       104          
   1741000   1258089.9      684.51302      1257405.4      0.24549523     222.36503      284.5229       299.13996      303.40858      316.55332      169414.56      9.7499258      92           
   1742000   1258086.9      687.36609      1257399.5      0.24549523     223.29185      299.20227      302.0966       302.1925       316.80136      169469.19      8.4854362      96           
   1743000   1258073.8      675.09336      1257398.7      0.24549523     219.30504      308.71963      296.5092       295.25625      317.24393      169444.53     -10.898877      98           
   1744000   1258086.4      684.20204      1257402.2      0.24549523     222.26401      304.21681      300.90479      299.64176      318.28479      169476.97      20.411133      98           
   1745000   1258092.5      681.85824      1257410.6      0.24549523     221.50262      312.30709      302.01801      295.0864       317.80201      169416.35     -10.588212      99           
   1746000   1258083.3      683.65365      1257399.6      0.24549523     222.08586      311.98552      299.71708      300.80843      317.39438      169476.15      15.720517      97           
   1747000   1258083.1      677.29958      1257405.8      0.24549523     220.02173      287.14854      298.24179      295.75053      316.98382      169476.96     -5.2780036      95           
   1748000   1258088.7      686.34551      1257402.3      0.24549523     222.96032      311.70447      300.67598      303.06901      316.14048      169414.34      9.289396       93           
   1749000   1258081.1      684.41773      1257396.7      0.24549523     222.33408      300.42678      300.63849      301.06406      315.68883      169472.94      2.2363532      102          
   1750000   1258082.9      683.63891      1257399.3      0.24549523     222.08107      282.95724      300.79194      300.00943      316.1139       169425.61      5.1585845      96           
   1751000   1258077.4      683.51174      1257393.9      0.24549523     222.03976      296.651        297.94522      303.97402      316.06971      169475.86      12.820452      107          
   1752000   1258085.6      679.909        1257405.7      0.24549523     220.86941      287.59746      296.73222      301.65341      315.22083      169427.27     -17.592229      102          
   1753000   1258076.1      680.41556      1257395.7      0.24549523     221.03396      323.03715      298.66749      299.13515      314.19204      169476.24      21.461983      104          
   1754000   1258083.3      680.86605      1257402.5      0.24549523     221.18031      333.31638      296.9609       302.01529      314.44406      169444.9      -12.203022      106          
   1755000   1258078.2      675.78505      1257402.4      0.24549523     219.52974      352.35202      295.84238      297.28892      313.68574      169451.42      16.603276      113          
   1756000   1258078.7      681.81242      1257396.9      0.24549523     221.48774      313.41727      299.9896       298.54002      316.07231      169461.58      4.158685       106          
   1757000   1258088.9      688.71804      1257400.2      0.24549523     223.73104      313.65569      304.52173      300.18473      316.27781      169408.36     -12.991539      96           
   1758000   1258088.2      681.18135      1257407        0.24549523     221.28273      334.92446      299.23583      298.59361      315.73297      169504.71      35.120634      93           
   1759000   1258082.2      681.86894      1257400.3      0.24549523     221.5061       316.88327      300.76175      297.64179      315.07637      169411.68     -27.707368      95           
   1760000   1258093.7      685.56689      1257408.1      0.24549523     222.70738      321.71886      303.02862      299.44504      312.3172       169472.46      36.697853      92           
   1761000   1258086.8      682.42551      1257404.3      0.24549523     221.6869       347.63104      300.5552       299.62841      309.88812      169436.59     -30.359881      83           
   1762000   1258087.1      680.33801      1257406.7      0.24549523     221.00877      352.02319      300.83978      296.64464      309.35289      169458.4       25.121808      94           
   1763000   1258083.8      680.13342      1257403.6      0.24549523     220.94231      365.56485      300.12671      297.2442       309.34284      169455.74     -11.425752      93           
   1764000   1258089.9      682.85595      1257407.1      0.24549523     221.82673      341.05665      301.23726      299.7493       307.70327      169433.33      9.2277353      93           
   1765000   1258094        687.94262      1257406.1      0.24549523     223.47914      313.1172       304.64072      300.80783      309.8115       169499.23      9.9453336      96           
   1766000   1258084.3      682.25327      1257402.1      0.24549523     221.63095      344.2354       300.78341      299.01367      309.86813      169421.68     -15.847781      103          
   1767000   1258073.2      679.28119      1257393.9      0.24549523     220.66546      288.7474       296.99086      301.49409      311.4851       169501.74      33.955285      100          
   1768000   1258088.9      685.82003      1257403.1      0.24549523     222.78961      290.47938      301.07315      303.48639      311.06266      169414.32     -34.878772      106          
   1769000   1258088.6      681.01157      1257407.6      0.24549523     221.22758      280.62941      302.44571      296.0893       309.48456      169493.56      47.484293      94           
   1770000   1258096        688.64939      1257407.4      0.24549523     223.70874      320.67443      303.33084      304.4936       305.80915      169420.61     -43.253404      98           
   1771000   1258089.9      687.60637      1257402.3      0.24549523     223.36991      339.99472      304.10234      302.24744      304.23733      169471.82      44.338234      106          
   1772000   1258086.8      682.26968      1257404.6      0.24549523     221.63628      313.93066      302.02133      298.76247      305.68095      169440.43     -35.968912      94           
   1773000   1258091        683.69502      1257407.3      0.24549523     222.0993       293.79575      299.18316      304.75441      307.02795      169461.08      30.481654      99           
   1774000   1258085.7      685.21009      1257400.5      0.24549523     222.59147      279.13296      300.54629      304.50854      308.38306      169431.61     -9.978911       99           
   1775000   1258086.8      685.71556      1257401.1      0.24549523     222.75567      295.27265      303.61099      300.33011      307.91689      169454.85     -4.3760103      104          
   1776000   1258098        686.37113      1257411.6      0.24549523     222.96864      309.87497      304.77268      299.16575      307.9252       169475.48      27.121747      105          
   1777000   1258089.8      684.20636      1257405.6      0.24549523     222.26541      304.72408      301.31389      301.84204      307.66771      169412.62     -32.8996        107          
   1778000   1258087.8      681.83799      1257405.9      0.24549523     221.49604      306.15547      304.22937      294.98401      305.91057      169489.77      42.455238      96           
   1779000   1258083        682.76276      1257400.2      0.24549523     221.79645      278.02338      301.34247      301.10719      304.99068      169425.98     -41.509659      90           
   1780000   1258094        683.2944       1257410.7      0.24549523     221.96916      280.97387      300.37091      303.50961      303.79752      169502.75      38.276447      93           
   1781000   1258090.9      678.35709      1257412.5      0.24549523     220.36527      304.98332      298.57483      299.4167       305.19416      169434.2      -24.987822      87           
   1782000   1258083.6      677.20678      1257406.4      0.24549523     219.99159      279.66929      299.60507      296.0861       307.67137      169447.24      13.283374      89           
   1783000   1258080.3      683.83155      1257396.5      0.24549523     222.14365      298.44         300.49993      302.59429      307.96323      169466.88      7.2962502      101          
   1784000   1258084.4      681.35372      1257403        0.24549523     221.33873      290.38598      299.58826      300.64434      309.51186      169426.08     -13.962453      102          
   1785000   1258076.5      677.26968      1257399.2      0.24549523     220.01202      303.17613      298.665        296.68819      310.0582       169468.52      40.10761       104          
   1786000   1258075.5      676.99431      1257398.5      0.24549523     219.92256      284.58618      300.28989      294.51206      309.07357      169420.97     -39.119527      102          
   1787000   1258080.3      676.72816      1257403.5      0.24549523     219.83611      308.79897      297.16021      298.68181      307.97799      169522.69      45.746254      112          
   1788000   1258089.6      683.98311      1257405.6      0.24549523     222.19289      280.85896      301.61691      302.04687      305.60279      169394.51     -33.66987       104          
   1789000   1258088.7      680.59655      1257408.1      0.24549523     221.09276      293.66019      299.18765      301.75505      303.83623      169503.23      37.788351      103          
   1790000   1258083.8      681.55818      1257402.2      0.24549523     221.40515      294.70831      302.72889      297.61637      303.83655      169432.95     -23.556043      93           
   1791000   1258090        686.23306      1257403.8      0.24549523     222.92379      265.452        301.20814      305.67548      305.3354       169487.26      19.222454      92           
   1792000   1258084.9      680.57276      1257404.3      0.24549523     221.08503      303.24895      300.61247      299.0206       305.50384      169442.96      3.5047289      96           
   1793000   1258086.4      682.13738      1257404.3      0.24549523     221.5933       274.22306      301.69547      299.41892      306.69659      169420.15     -9.1436205      93           
   1794000   1258084.6      677.57257      1257407        0.24549523     220.11041      296.04336      297.82678      299.41135      306.39599      169468.84      33.732176      107          
   1795000   1258088.1      687.76517      1257400.4      0.24549523     223.4215       312.74436      303.99876      302.12558      307.31879      169405.06     -36.979317      120          
   1796000   1258092.4      685.25016      1257407.2      0.24549523     222.60449      302.53238      301.2901       303.44613      306.76958      169488.87      50.615696      123          
   1797000   1258084.7      684.60167      1257400.1      0.24549523     222.39383      284.20744      303.17128      300.35502      305.89346      169400.6      -41.720558      109          
   1798000   1258090.9      682.09663      1257408.8      0.24549523     221.58006      303.61348      298.01474      305.07201      304.47423      169495.85      41.052368      110          
   1799000   1258082.9      677.8321       1257405.1      0.24549523     220.19472      270.20286      301.95913      294.46904      304.40825      169395.62     -26.482093      106          
   1800000   1258084.5      677.82698      1257406.7      0.24549523     220.19306      287.3587       300.73999      295.87973      304.69563      169461.63      24.044343      111          
   1801000   1258089.8      684.4998       1257405.3      0.24549523     222.36074      295.78059      301.70125      302.20231      305.89598      169455.06     -1.11212        105          
   1802000   1258089        686.10837      1257402.9      0.24549523     222.88328      301.3609       302.56566      302.3956       307.51666      169436.22     -9.158584       108          
   1803000   1258086.2      678.92082      1257407.3      0.24549523     220.5484       291.37898      298.97698      298.84058      308.44502      169477.28      30.024141      107          
   1804000   1258080.7      685.17785      1257395.5      0.24549523     222.581        290.76626      303.1883       300.15622      308.73602      169406.01     -24.804191      102          
   1805000   1258078.5      676.83767      1257401.6      0.24549523     219.87168      275.89337      296.5917       299.8223       309.49806      169487.27      23.520419      95           
   1806000   1258086.3      677.97014      1257408.3      0.24549523     220.23957      298.46309      301.22191      294.33997      307.88556      169425.98     -10.456946      94           
   1807000   1258089.8      684.78342      1257405        0.24549523     222.45287      304.12198      302.39474      301.44166      305.73684      169479.51      9.8739644      90           
   1808000   1258088.4      685.24027      1257403.1      0.24549523     222.60128      299.609        302.75722      301.67525      305.04796      169463.9       15.274316      92           
   1809000   1258089.2      686.47699      1257402.7      0.24549523     223.00303      341.81751      304.51772      300.18438      304.10406      169457.67     -20.094219      98           
   1810000   1258082.7      681.22242      1257401.5      0.24549523     221.29607      262.50402      303.27838      295.93798      307.01662      169471.59      29.5362        84           
   1811000   1258088        688.27977      1257399.7      0.24549523     223.58866      306.27385      302.9093       304.28682      308.17438      169426.86     -20.442848      91           
   1812000   1258088.4      685.19641      1257403.2      0.24549523     222.58703      369.84332      299.46753      304.66011      308.4866       169496.39      22.781342      93           
   1813000   1258083.2      680.89432      1257402.3      0.24549523     221.18949      294.90905      296.59328      304.22082      310.59355      169439.61     -5.1463599      90           
   1814000   1258085.9      688.25523      1257397.7      0.24549523     223.58069      317.80503      303.58122      302.68499      309.73893      169468.61      0.82351199     91           
   1815000   1258080.4      678.22914      1257402.1      0.24549523     220.3237       345.10486      299.04652      297.41997      307.23598      169423.66      10.14581       93           
   1816000   1258088.3      687.87028      1257400.5      0.24549523     223.45564      306.04041      302.04886      304.94162      308.6861       169485.88     -7.1234897      84           
   1817000   1258083        680.73793      1257402.3      0.24549523     221.13869      351.10319      298.92586      300.51824      307.51511      169440.34      22.051293      93           
   1818000   1258070.3      675.36148      1257395        0.24549523     219.39214      321.7399       298.26934      294.99437      308.77619      169414.87     -23.128746      93           
   1819000   1258078.1      678.51268      1257399.6      0.24549523     220.41581      275.72748      298.66733      298.77806      309.3725       169459.96      35.606031      92           
   1820000   1258089.2      684.78128      1257404.4      0.24549523     222.45217      289.96213      302.86087      300.20608      308.37596      169437.17     -29.977985      94           
   1821000   1258087.6      682.61205      1257405        0.24549523     221.7475       306.90241      300.67762      300.48229      308.8645       169451.7       32.294533      95           
   1822000   1258086.5      681.3979       1257405.1      0.24549523     221.35308      314.3921       300.29311      299.62084      308.26134      169419.6      -18.995706      90           
   1823000   1258087.8      689.66598      1257398.2      0.24549523     224.03898      280.87024      306.68733      300.18665      309.95493      169508.27      17.389699      91           
   1824000   1258078.2      679.40388      1257398.8      0.24549523     220.70532      268.66806      298.4436       300.31879      309.50379      169414.43      2.2417416      94           
   1825000   1258075        681.6441       1257393.4      0.24549523     221.43306      266.9104       301.4409       297.93515      311.92493      169469.96     -0.71165774     96           
   1826000   1258088.7      687.08335      1257401.6      0.24549523     223.2          286.87316      302.00136      303.68454      311.08071      169460.06      18.80637       91           
   1827000   1258082.5      683.89372      1257398.6      0.24549523     222.16385      257.85473      300.87476      302.11027      309.99924      169429.1      -18.374395      85           
   1828000   1258081.8      674.75         1257407        0.24549523     219.1935       264.1803       295.56431      298.9247       309.58029      169451.64      28.277318      91           
   1829000   1258088.9      684.03501      1257404.8      0.24549523     222.20975      270.26535      301.60358      301.255        309.5955       169449.4      -17.316882      105          
   1830000   1258083.7      681.27333      1257402.4      0.24549523     221.31261      276.76663      297.03032      304.54777      309.90867      169480.39      35.390445      105          
   1831000   1258086.7      687.28397      1257399.4      0.24549523     223.26518      269.82416      298.76771      309.1349       311.35721      169411.59     -22.201787      108          
   1832000   1258096.7      690.10291      1257406.6      0.24549523     224.18091      257.93522      302.79151      306.46793      311.85638      169476.25      20.374084      102          
   1833000   1258088.4      680.57151      1257407.8      0.24549523     221.08463      287.28507      298.17633      301.38066      311.41904      169432.1       5.3981341      102          
   1834000   1258086.4      683.71263      1257402.7      0.24549523     222.10502      261.44499      300.2296       302.22847      312.81378      169442.59     -6.758003       105          
   1835000   1258090.5      684.23904      1257406.3      0.24549523     222.27603      284.30013      300.20582      303.0682       310.86387      169463.63      27.880827      102          
   1836000   1258088.5      684.23358      1257404.3      0.24549523     222.27425      313.14909      302.10584      299.40412      312.09637      169445.09     -27.722458      111          
   1837000   1258092.2      686.59933      1257405.6      0.24549523     223.04277      279.33566      301.97964      303.24845      311.33913      169472.27      34.964237      114          
   1838000   1258083.6      680.0816       1257403.6      0.24549523     220.92548      277.82794      301.30761      296.61181      310.17566      169427.71     -21.350704      113          
   1839000   1258078.1      675.84228      1257402.2      0.24549523     219.54833      275.79468      299.31919      294.14321      311.1676       169484.25      20.97019       111          
   1840000   1258090.3      684.02787      1257406.3      0.24549523     222.20743      284.22         300.51166      302.49429      310.45191      169445.95     -15.9447        120          
   1841000   1258085        682.96656      1257402.1      0.24549523     221.86266      266.23625      300.11068      302.00101      310.98935      169486.22      16.792171      114          
   1842000   1258083.9      678.95289      1257404.9      0.24549523     220.55881      278.47239      302.72962      292.53219      312.13858      169443.52      4.8444162      110          
   1843000   1258084.8      681.00802      1257403.8      0.24549523     221.22642      301.90624      300.65465      298.32138      310.09669      169441.9      -12.027138      118          
   1844000   1258094.9      687.97589      1257406.9      0.24549523     223.48995      266.8558       307.12506      297.53183      311.26223      169459.08      30.371775      122          
   1845000   1258089.4      680.85832      1257408.6      0.24549523     221.17779      250.6234       301.3257       298.36872      308.89551      169426.39     -28.387519      115          
   1846000   1258084.6      679.73926      1257404.9      0.24549523     220.81427      258.20607      300.46931      298.0417       309.34576      169494.24      28.134585      120          
   1847000   1258083.9      679.52223      1257404.4      0.24549523     220.74376      305.6785       299.1822       298.97812      308.8142       169406.93     -22.154155      124          
   1848000   1258089.5      688.61545      1257400.9      0.24549523     223.69771      325.67506      304.11789      302.4644       308.36829      169511.58      31.183109      123          
   1849000   1258086.9      685.21023      1257401.7      0.24549523     222.59152      300.57283      302.8501       300.68219      308.11298      169421.31     -19.054288      115          
   1850000   1258087.9      681.86898      1257406.1      0.24549523     221.50611      302.41996      299.21116      301.61425      309.81626      169472.27      16.842703      117          
   1851000   1258083.7      681.67037      1257402        0.24549523     221.44159      284.57074      300.41816      299.90568      309.5954       169462.33      1.6432886      108          
   1852000   1258085.4      681.34078      1257404        0.24549523     221.33452      291.6183       301.48178      297.98899      308.83628      169459.27     -5.435031       111          
   1853000   1258092.9      683.51212      1257409.4      0.24549523     222.03989      288.08623      301.47549      301.04981      307.65832      169495.45      18.998098      114          
   1854000   1258086.3      681.13665      1257405.1      0.24549523     221.26821      299.46167      299.65191      300.95333      306.56551      169393.78     -18.536685      113          
   1855000   1258079.3      677.8577       1257401.5      0.24549523     220.20304      301.16283      299.93238      296.21302      307.54642      169513.94      30.504009      115          
   1856000   1258079.6      681.30152      1257398.3      0.24549523     221.32177      268.67273      301.36963      298.59697      308.64646      169398.32     -29.208544      108          
   1857000   1258085.2      682.44372      1257402.8      0.24549523     221.69281      302.25974      301.66271      298.88014      308.91089      169482.83      39.339535      123          
   1858000   1258078.4      681.54934      1257396.9      0.24549523     221.40227      308.97891      299.16688      301.39932      308.88871      169434.8      -28.09481       115          
   1859000   1258083.4      680.41979      1257403        0.24549523     221.03534      319.06249      299.2823       300.26373      306.59265      169486.4       31.794935      117          
   1860000   1258082.7      680.52249      1257402.2      0.24549523     221.0687       310.6482       300.21726      299.48479      305.22358      169430.69     -15.461136      111          
   1861000   1258086        681.27567      1257404.7      0.24549523     221.31337      315.32583      301.82308      298.08645      304.44175      169435.53      18.469786      116          
   1862000   1258078.4      674.50388      1257403.9      0.24549523     219.11354      312.39447      296.66163      297.58335      304.5825       169460.94     -5.3485256      115          
   1863000   1258080.7      677.61192      1257403        0.24549523     220.1232       280.5821       297.54632      300.6916       304.28911      169429.66      2.6838121      105          
   1864000   1258075.9      675.44131      1257400.4      0.24549523     219.41807      286.16365      297.72501      296.98621      306.76578      169458.64     -2.0719513      99           
   1865000   1258086.1      680.85526      1257405.3      0.24549523     221.1768       248.072        301.30245      298.74494      307.23803      169462.44      8.0151812      91           
   1866000   1258081.9      680.46093      1257401.4      0.24549523     221.0487       255.65693      302.75598      296.06467      306.75206      169441.82      6.240658       97           
   1867000   1258085        681.83783      1257403.1      0.24549523     221.49599      283.46596      302.12771      298.5058       305.90989      169447.76     -8.2558324      101          
   1868000   1258086.1      678.9436       1257407.1      0.24549523     220.55579      327.49859      299.45096      298.63169      304.5087       169496.33      25.745498      103          
   1869000   1258087.3      682.56353      1257404.7      0.24549523     221.73173      301.25402      300.7072       301.15246      306.37331      169446.16     -19.515468      106          
   1870000   1258080.5      678.95893      1257401.5      0.24549523     220.56077      322.30439      298.61181      299.3004       307.14372      169463.79      31.130594      105          
   1871000   1258085.1      679.31127      1257405.8      0.24549523     220.67523      317.77887      296.33748      303.41287      306.44915      169453.57     -21.500223      106          
   1872000   1258079.5      680.09649      1257399.4      0.24549523     220.93031      292.09994      299.35654      300.08586      307.29069      169436.29      22.223577      94           
   1873000   1258083.5      681.5352       1257401.9      0.24549523     221.39768      276.90791      301.21999      299.09197      307.67446      169457.7      -6.6041358      92           
   1874000   1258091.9      686.70559      1257405.2      0.24549523     223.07729      297.1843       302.63021      303.08507      307.48897      169460.43      10.495164      92           
   1875000   1258088.8      682.95024      1257405.9      0.24549523     221.85736      320.01463      300.25488      301.76213      307.10106      169461.01      1.9392249      100          
   1876000   1258086.7      683.87397      1257402.9      0.24549523     222.15743      373.16702      297.57018      306.25666      306.75928      169425.68     -0.34514945     97           
   1877000   1258081.8      680.52048      1257401.3      0.24549523     221.06805      367.34853      298.59823      301.32911      304.5724       169477.92      10.197467      90           
   1878000   1258083.5      679.23033      1257404.2      0.24549523     220.64894      347.5359       300.55082      297.01657      304.72397      169443.22     -10.814051      88           
   1879000   1258078.7      677.11025      1257401.6      0.24549523     219.96023      349.72353      298.56203      297.28827      305.28389      169445.39      15.484581      84           
   1880000   1258085        680.60942      1257404.4      0.24549523     221.09694      302.44302      298.72831      301.7125       306.22118      169471.06     -1.7764491      83           
   1881000   1258083.4      681.41106      1257402        0.24549523     221.35735      281.97312      301.87495      298.14309      306.59068      169421.8       4.7420171      85           
   1882000   1258092.1      686.97488      1257405.1      0.24549523     223.16477      268.60825      303.8667       302.21408      306.45791      169484.91      6.3452666      87           
   1883000   1258088.4      682.58673      1257405.9      0.24549523     221.73927      319.28806      301.49062      299.58145      306.78262      169445.97     -8.4153845      100          
   1884000   1258091.1      689.44657      1257401.7      0.24549523     223.9677       291.82665      304.26351      304.40526      306.33195      169462.62      18.1608        101          
   1885000   1258080.6      674.3625       1257406.3      0.24549523     219.06762      294.02931      297.49305      295.71478      307.32935      169455.57     -4.0947469      105          
   1886000   1258082.3      680.10595      1257402.2      0.24549523     220.93339      345.96704      301.84214      295.89314      305.62804      169431.27      0.63002161     100          
   1887000   1258080.4      683.00415      1257397.4      0.24549523     221.87487      359.61665      300.88678      300.97364      304.52771      169481.62      8.6684211      95           
   1888000   1258086.4      685.79371      1257400.6      0.24549523     222.78106      354.3629       302.01617      302.8815       304.25488      169440.22     -5.2193263      97           
   1889000   1258082.2      677.20445      1257405        0.24549523     219.99083      338.89412      299.22804      296.84873      303.90072      169467.39      14.331498      105          
   1890000   1258081.5      683.1842       1257398.4      0.24549523     221.93336      285.38564      302.73807      299.47095      304.9119       169416.78     -9.5355406      99           
   1891000   1258083.4      686.15881      1257397.3      0.24549523     222.89967      322.97982      301.03452      305.39785      304.10865      169451.62      18.363507      108          
   1892000   1258076.1      680.07544      1257396        0.24549523     220.92348      306.76831      298.62533      301.37416      305.3865       169422.81     -3.3152989      105          
   1893000   1258081.2      681.53544      1257399.7      0.24549523     221.39776      295.71385      302.34192      297.41055      306.5188       169443.97      11.222317      100          
   1894000   1258077.1      677.39633      1257399.7      0.24549523     220.05316      280.97209      298.25606      298.06563      309.10508      169440.12      1.6881157      102          
   1895000   1258068.8      674.86724      1257393.9      0.24549523     219.23158      289.47193      295.31217      299.15622      309.34876      169458.59     -0.55078256     103          
   1896000   1258078.3      678.66635      1257399.6      0.24549523     220.46573      285.33029      298.85         298.59943      309.31399      169461.47      20.025313      100          
   1897000   1258072.2      674.90927      1257397.3      0.24549523     219.24524      323.01858      297.78609      295.96577      305.57982      169446.82     -11.631446      100          
   1898000   1258083.5      678.38913      1257405.1      0.24549523     220.37568      329.13267      299.23448      298.72416      302.57037      169448.83      16.788194      104          
   1899000   1258087.3      681.24615      1257406.1      0.24549523     221.30378      302.67067      299.362        302.47221      302.74166      169453.48     -5.1250049      106          
   1900000   1258087.8      681.08395      1257406.7      0.24549523     221.25109      328.1931       300.45517      300.50184      301.65534      169472.32      6.1207608      97           
   1901000   1258083        673.9517       1257409.1      0.24549523     218.93417      316.40776      297.23594      296.51463      302.5767       169418.04      9.1030747      106          
   1902000   1258085        680.33735      1257404.7      0.24549523     221.00856      305.32702      299.98536      299.67795      305.23841      169481.21     -7.6781018      105          
   1903000   1258089.2      686.24829      1257402.9      0.24549523     222.92874      282.98327      302.44725      303.46028      306.31844      169432.79      23.31946       101          
   1904000   1258079.5      678.32141      1257401.2      0.24549523     220.35368      328.66183      299.04297      297.95771      306.48878      169430.57     -15.678826      99           
   1905000   1258081.7      681.35912      1257400.4      0.24549523     221.34048      308.16931      299.83007      300.77438      306.69556      169465.23      19.972057      93           
   1906000   1258081.3      671.64531      1257409.6      0.24549523     218.18494      303.21718      296.49057      294.20317      305.9897       169429.76     -11.996935      97           
   1907000   1258078.3      676.71884      1257401.5      0.24549523     219.83308      288.97866      300.91083      293.84163      306.2327       169505.56      13.437151      95           
   1908000   1258080.8      680.87845      1257399.9      0.24549523     221.18434      302.59795      302.43199      296.52587      305.90219      169419.55     -6.6077074      84           
   1909000   1258083        685.05179      1257397.9      0.24549523     222.54005      319.3007       302.59156      301.01644      306.68194      169480.65      7.7845523      86           
   1910000   1258083.6      680.20543      1257403.4      0.24549523     220.9657       280.76908      299.81607      300.02036      305.70801      169424.39      0.40559478     88           
   1911000   1258083        678.84337      1257404.1      0.24549523     220.52324      294.67872      295.70489      304.37704      305.47166      169499.71      5.9401694      85           
   1912000   1258077.7      678.69133      1257399        0.24549523     220.47384      276.92913      298.23038      300.3995       306.33614      169441.82      9.0629096      85           
   1913000   1258085.4      678.58175      1257406.8      0.24549523     220.43825      310.36682      297.41564      300.92178      306.86322      169463.13     -11.631633      79           
   1914000   1258095.2      689.27083      1257405.9      0.24549523     223.91061      285.56729      302.7755       305.69368      309.19477      169473.16      24.222863      81           
   1915000   1258080.9      676.7458       1257404.1      0.24549523     219.84184      303.76864      299.22896      295.59455      308.42565      169422.36     -26.285142      73           
   1916000   1258084.8      681.234        1257403.6      0.24549523     221.29983      286.70515      299.55909      300.67455      308.9252       169496.2       35.149817      72           
   1917000   1258086.3      681.89949      1257404.4      0.24549523     221.51602      328.10526      299.2012       302.21597      306.49282      169430.43     -27.503067      73           
   1918000   1258088.5      680.11206      1257408.4      0.24549523     220.93537      324.47452      299.09481      300.41413      305.67485      169480.79      27.836389      73           
   1919000   1258084.1      676.09944      1257408        0.24549523     219.63187      269.82944      296.64841      299.98887      305.18676      169402.07     -15.015548      73           
   1920000   1258080        680.71561      1257399.3      0.24549523     221.13144      261.31323      299.31879      301.52475      305.73021      169487.22      15.924569      69           
   1921000   1258074.7      676.9001       1257397.8      0.24549523     219.89196      243.68207      299.17818      297.11394      306.46218      169411.15     -1.5083136      71           
   1922000   1258083.7      681.26248      1257402.5      0.24549523     221.30909      246.31972      297.96639      303.85832      307.96766      169477.56      0.43861379     76           
   1923000   1258077.7      678.67097      1257399.1      0.24549523     220.46723      291.66086      297.9293       299.69476      309.74419      169465.14      14.588952      71           
   1924000   1258090.6      688.58539      1257402        0.24549523     223.68794      306.32771      302.96612      303.94817      310.38869      169489.91     -11.706832      81           
   1925000   1258086.2      685.09893      1257401.1      0.24549523     222.55536      351.88003      301.54906      301.52931      309.17927      169465.69      17.417957      84           
   1926000   1258095.4      689.31832      1257406.1      0.24549523     223.92604      343.51526      302.06025      306.89176      305.96442      169424.91     -20.860146      92           
   1927000   1258095.2      688.49164      1257406.7      0.24549523     223.65749      327.36087      305.64022      301.36433      303.56521      169500.76      33.017157      84           
   1928000   1258076.5      675.08807      1257401.4      0.24549523     219.30332      290.01203      296.61863      299.30555      302.47666      169396.25     -28.548827      81           
   1929000   1258078.7      678.67739      1257400        0.24549523     220.46932      236.92092      298.01933      302.53775      301.28852      169473.91      42.839241      79           
   1930000   1258085        682.55557      1257402.4      0.24549523     221.72915      303.5467       300.97957      302.28928      300.28006      169437.09     -38.432075      97           
   1931000   1258088.5      686.55595      1257401.9      0.24549523     223.02868      295.63317      302.09046      305.18751      302.01752      169493.1       42.911377      85           
   1932000   1258080.1      673.09611      1257407        0.24549523     218.65623      297.60991      298.66773      293.51992      302.88732      169417.74     -28.119609      82           
   1933000   1258082.2      673.30133      1257408.9      0.24549523     218.72289      291.67183      295.62327      297.80262      305.18308      169465.58      26.404383      77           
   1934000   1258084        681.15438      1257402.8      0.24549523     221.27397      296.34593      301.99437      297.66127      305.69792      169445.42      1.4571979      81           
   1935000   1258077.1      675.4771       1257401.6      0.24549523     219.4297       303.52174      299.32522      295.05979      303.82798      169456.11     -5.5968432      86           
   1936000   1258089.8      682.92791      1257406.9      0.24549523     221.8501       320.78877      302.36875      300.23711      301.08412      169471.1       25.605333      79           
   1937000   1258086.8      678.90109      1257407.9      0.24549523     220.54199      308.55541      299.55425      300.4488       298.17179      169408.78     -30.441477      81           
   1938000   1258082.9      676.91321      1257406        0.24549523     219.89622      277.84256      300.02685      297.85884      297.43767      169496.76      42.596622      74           
   1939000   1258068.1      668.17872      1257399.9      0.24549523     217.05881      229.63494      295.58892      294.01631      298.56521      169401.2      -43.19724       71           
   1940000   1258085        676.55181      1257408.4      0.24549523     219.77882      265.23605      298.30599      299.41427      300.28076      169497.26      51.050141      77           
   1941000   1258091.8      684.87401      1257406.9      0.24549523     222.4823       283.91191      300.59187      305.46375      302.26657      169443.03     -30.536054      86           
   1942000   1258078.2      676.4052       1257401.8      0.24549523     219.73119      302.72592      297.33976      298.99272      304.85571      169453.49      30.636855      79           
   1943000   1258082.2      677.56843      1257404.7      0.24549523     220.10907      332.53705      299.15429      297.25377      305.17667      169444.75     -7.4800962      92           
   1944000   1258085.8      684.43201      1257401.4      0.24549523     222.33871      322.82215      300.02079      304.38055      305.48192      169466.74      3.2165766      91           
   1945000   1258086.6      678.20906      1257408.4      0.24549523     220.31718      284.77236      298.97027      299.26019      303.82049      169462.57      20.412036      91           
   1946000   1258082.3      678.38834      1257403.9      0.24549523     220.37542      286.35853      298.31752      301.53126      300.63268      169417.18     -22.85409       90           
   1947000   1258084        676.3846       1257407.6      0.24549523     219.7245       275.08167      296.82836      301.00398      301.47238      169480.37      29.916251      83           
   1948000   1258086.3      679.94003      1257406.3      0.24549523     220.87949      268.95938      298.36044      303.14246      301.33358      169416.35     -22.318252      79           
   1949000   1258081.6      679.72726      1257401.9      0.24549523     220.81037      314.09098      298.41347      301.83581      302.98027      169484.85      30.339983      73           
   1950000   1258083.8      680.19117      1257403.6      0.24549523     220.96107      303.69009      299.62099      300.64812      303.20489      169433.62     -14.696138      78           
   1951000   1258075.9      674.66005      1257401.3      0.24549523     219.16428      272.35087      299.05433      294.64893      304.69067      169472         20.905209      78           
   1952000   1258080.3      680.9662       1257399.3      0.24549523     221.21284      258.35087      297.07733      305.59096      304.69011      169445.94     -9.4825349      79           
   1953000   1258081.5      680.76509      1257400.7      0.24549523     221.14751      274.64183      298.31333      303.8241       302.69133      169438.26      17.792495      87           
   1954000   1258083.2      677.24228      1257406        0.24549523     220.00312      298.53451      297.49418      301.26379      299.5603       169473.29     -3.9154967      86           
   1955000   1258091.1      686.64485      1257404.4      0.24549523     223.05756      290.89335      302.25488      305.6291       300.02898      169411.66      10.680438      86           
   1956000   1258088        673.67291      1257414.4      0.24549523     218.8436       258.53003      296.47492      298.66566      300.69247      169497.62      4.7556397      89           
   1957000   1258078.6      679.06746      1257399.5      0.24549523     220.59603      262.97932      300.0698       299.25709      302.9352       169422.73     -3.0448304      93           
   1958000   1258084        683.8132       1257400.1      0.24549523     222.13769      276.19752      300.50634      303.7217       305.03959      169461.21      15.286707      100          
   1959000   1258088.7      683.37025      1257405.3      0.24549523     221.9938       303.95152      301.5728       301.37809      304.49458      169450.63     -5.7008722      94           
   1960000   1258092.8      691.60076      1257401.2      0.24549523     224.66749      295.48319      304.01529      307.61627      305.09276      169494.76      6.7697089      93           
   1961000   1258090        685.8535       1257404.1      0.24549523     222.80049      333.85433      302.73075      302.42861      303.38597      169436.55      1.1276031      96           
   1962000   1258095        686.22618      1257408.7      0.24549523     222.92155      307.03936      302.9218       303.53549      301.25403      169428.32     -2.1596902      92           
   1963000   1258090.5      685.11362      1257405.3      0.24549523     222.56013      318.4976       303.34176      302.23449      298.27503      169476.45      19.331178      85           
   1964000   1258075.3      674.40443      1257400.9      0.24549523     219.08124      341.56886      297.48604      297.78724      297.40664      169420.75     -13.060278      85           
   1965000   1258090.8      686.2227       1257404.6      0.24549523     222.92042      347.13787      304.1899       301.90935      298.4142       169455.54      22.593618      83           
   1966000   1258081.5      677.18618      1257404.3      0.24549523     219.9849       353.02325      300.2868       295.9586       300.2996       169452.22     -12.074436      93           
   1967000   1258093.4      684.30094      1257409.1      0.24549523     222.29614      329.29627      304.69196      297.74101      302.95977      169451.16      22.749778      91           
   1968000   1258094.5      690.61358      1257403.8      0.24549523     224.34681      320.07387      305.58678      303.80818      304.93039      169456.32     -14.802359      86           
   1969000   1258087.6      680.79622      1257406.9      0.24549523     221.15762      313.44203      301.62932      297.62062      305.4949       169462.4       22.576962      91           
   1970000   1258087.2      682.01647      1257405.2      0.24549523     221.55402      321.33912      299.01783      303.43739      303.5829       169453.67     -11.745332      94           
   1971000   1258083.5      673.27732      1257410.2      0.24549523     218.7151       313.444        297.49853      295.61227      301.72912      169431.38      6.8513165      96           
   1972000   1258084.8      680.43811      1257404.4      0.24549523     221.04129      285.9219       301.807        298.91597      299.5029       169438.92      13.086945      97           
   1973000   1258086.8      685.80123      1257401        0.24549523     222.78351      291.34543      303.04482      303.68991      298.97419      169461.02     -15.888823      83           
   1974000   1258081.1      681.47233      1257399.7      0.24549523     221.37726      307.58864      302.1651       299.11909      300.07255      169461.56      27.575145      90           
   1975000   1258084.5      678.63754      1257405.9      0.24549523     220.45637      287.23589      299.66806      299.33525      301.53274      169412.8      -21.360927      86           
   1976000   1258080.8      680.11974      1257400.7      0.24549523     220.93787      306.94908      300.91894      298.53747      303.29474      169472.58      34.758304      89           
   1977000   1258081        682.72923      1257398.2      0.24549523     221.78556      286.20018      300.40038      302.21484      305.52835      169451.67     -15.17028       87           
   1978000   1258078.8      675.22287      1257403.6      0.24549523     219.34711      287.94457      295.61555      300.59655      303.96037      169451.83      14.509398      95           
   1979000   1258084.7      683.59378      1257401.1      0.24549523     222.06641      281.88515      301.24471      303.13568      301.40098      169443.33      6.3379786      87           
   1980000   1258092.7      685.17661      1257407.5      0.24549523     222.5806       267.75071      301.353        305.29113      300.87716      169478.73     -6.6341209      88           
   1981000   1258084.5      676.10371      1257408.4      0.24549523     219.63325      296.33695      301.77942      293.15049      300.6897       169468.59      14.900892      93           
   1982000   1258087        683.13695      1257403.8      0.24549523     221.91801      293.71739      303.67067      298.7459       301.47206      169418.01     -17.176598      92           
   1983000   1258092.8      684.48009      1257408.4      0.24549523     222.35433      331.91779      302.8307       301.63728      299.99613      169464.82      34.146291      97           
   1984000   1258077.3      675.14355      1257402.1      0.24549523     219.32134      294.5736       297.07337      298.32841      303.472        169443.83     -32.172955      89           
   1985000   1258080.3      679.39935      1257400.9      0.24549523     220.70385      321.16268      295.37971      305.49997      304.36309      169470.06      39.923709      89           
   1986000   1258075.9      674.69509      1257401.2      0.24549523     219.17566      334.16764      298.06502      295.52974      304.11111      169417.32     -30.910304      88           
   1987000   1258078.7      675.76998      1257402.9      0.24549523     219.52484      316.76706      296.758        299.05433      304.326        169507.24      38.48292       91           
   1988000   1258083.8      676.90304      1257406.9      0.24549523     219.89292      334.8665       296.85401      300.56133      301.69751      169436.72     -19.301935      105          
   1989000   1258078.7      679.36862      1257399.3      0.24549523     220.69386      296.55679      299.28181      301.248        299.46451      169456.39      11.61807       99           
   1990000   1258073.7      671.00801      1257402.7      0.24549523     217.97791      285.38857      293.87136      299.39793      299.05699      169446.8       9.1090811      104          
   1991000   1258081.1      676.93959      1257404.1      0.24549523     219.90479      268.15932      300.53692      297.15135      298.28754      169472.51     -6.4654499      104          
   1992000   1258083.2      681.10453      1257402.1      0.24549523     221.25778      290.95999      298.23929      304.53748      301.40897      169461.63      18.371441      108          
   1993000   1258078.6      675.18319      1257403.4      0.24549523     219.33422      298.66136      297.54568      297.47098      304.04269      169435.67     -15.725054      105          
   1994000   1258077.8      678.18221      1257399.6      0.24549523     220.30846      312.87713      297.64903      300.62147      304.63409      169499.79      29.575132      98           
   1995000   1258078.3      680.52989      1257397.8      0.24549523     221.0711       289.87341      302.36737      297.19252      303.01794      169429.08     -24.710516      97           
   1996000   1258083.6      683.76309      1257399.8      0.24549523     222.12142      294.58752      304.26779      298.90628      300.51099      169461.67      27.676715      100          
   1997000   1258078.3      676.86904      1257401.4      0.24549523     219.88187      285.88301      297.06464      302.19927      297.55916      169448.69     -17.370202      109          
   1998000   1258083.8      684.38589      1257399.4      0.24549523     222.32373      352.88584      301.96301      303.64555      295.03317      169458.74      17.854396      103          
   1999000   1258081.3      677.73033      1257403.6      0.24549523     220.16166      312.64683      300.00394      298.34258      297.764        169434.94     -6.799485       101          
   2000000   1258072.7      674.66579      1257398        0.24549523     219.16614      273.77899      297.48793      298.40192      299.79115      169455.79      12.003478      93           
   2001000   1258071.5      678.721        1257392.8      0.24549523     220.48349      321.79891      298.40576      300.9627       300.91121      169461.1       1.9853876      108          
   2002000   1258079.8      681.70897      1257398.1      0.24549523     221.45413      296.39727      301.03838      300.8777       301.76021      169449.17      0.47768797     99           
   2003000   1258075.5      678.61914      1257396.8      0.24549523     220.45039      283.77317      299.61007      298.93251      303.53743      169462.14      21.795828      91           
   2004000   1258091.1      686.49448      1257404.6      0.24549523     223.00871      293.8187       302.51494      304.57246      301.76163      169409.05     -28.656129      92           
   2005000   1258080.2      672.88946      1257407.3      0.24549523     218.5891       264.41478      294.87979      300.40035      299.2613       169463.19      38.309402      89           
   2006000   1258091.5      685.47197      1257406        0.24549523     222.67655      301.24068      304.26156      302.10828      296.01621      169420.57     -38.002021      95           
   2007000   1258084        674.34098      1257409.6      0.24549523     219.06063      299.75233      298.09429      297.72867      295.98446      169497.53      43.937133      92           
   2008000   1258080.8      672.74085      1257408        0.24549523     218.54082      291.1977       296.34423      298.20868      297.17155      169411.18     -31.939115      100          
   2009000   1258072        671.16244      1257400.8      0.24549523     218.02807      264.55378      297.85113      293.93935      298.78089      169474.52      33.870338      90           
   2010000   1258082.3      678.47644      1257403.9      0.24549523     220.40404      292.27103      301.11894      297.46589      299.43324      169423.25     -18.592512      102          
   2011000   1258073.2      674.37289      1257398.8      0.24549523     219.071        278.58816      297.13425      298.27814      300.68137      169456.9       15.236895      95           
   2012000   1258078.7      676.26002      1257402.5      0.24549523     219.68403      260.83452      301.48756      294.17052      301.32486      169446.59      4.489951       99           
   2013000   1258084.4      680.43574      1257403.9      0.24549523     221.04052      271.06325      300.46662      301.02405      299.81951      169447.58     -7.3207587      91           
   2014000   1258089.3      685.38135      1257403.9      0.24549523     222.64711      294.26966      304.72709      300.7636       298.50501      169467.33      26.833581      104          
   2015000   1258090.5      678.30101      1257412.2      0.24549523     220.34705      279.65262      300.85647      298.27525      297.6533       169441.15     -31.181185      101          
   2016000   1258081.9      678.61964      1257403.3      0.24549523     220.45056      267.84022      300.40982      299.65225      297.31456      169501.77      55.042044      100          
   2017000   1258079.3      681.21002      1257398.1      0.24549523     221.29205      276.08068      300.2221       302.87182      297.68452      169401.16     -57.029262      94           
   2018000   1258083.5      678.97774      1257404.5      0.24549523     220.56689      312.00931      299.50471      300.59056      297.97557      169482.38      65.813812      97           
   2019000   1258073.8      673.3899       1257400.4      0.24549523     218.75167      308.78479      297.67233      296.56241      297.8456       169434.29     -45.57275       95           
   2020000   1258087.8      679.02037      1257408.8      0.24549523     220.58073      307.09975      300.73346      299.08426      297.52157      169484.06      41.901682      96           
   2021000   1258083        679.7361       1257403.3      0.24549523     220.81324      291.41293      299.71898      301.70761      297.10934      169459.06     -12.978908      96           
   2022000   1258076.3      678.52881      1257397.7      0.24549523     220.42105      312.07812      298.02213      302.15087      298.39052      169435.09      1.7250505      100          
   2023000   1258078.8      674.70545      1257404.1      0.24549523     219.17903      294.67839      300.73919      293.37082      299.40787      169481.11      32.365647      106          
   2024000   1258084.9      683.14498      1257401.8      0.24549523     221.92062      251.06954      303.01606      300.91005      299.88771      169407.74     -34.596734      104          
   2025000   1258067.1      667.83366      1257399.2      0.24549523     216.94672      292.10248      295.98416      292.02962      299.72487      169484.8       61.154414      112          
   2026000   1258083.4      675.42117      1257407.9      0.24549523     219.41153      263.9963       299.88774      296.01073      299.38412      169387.42     -61.962026      99           
   2027000   1258090.5      685.70084      1257404.8      0.24549523     222.75089      303.46641      303.20951      303.25448      298.57165      169505.2       76.711364      101          
   2028000   1258062.3      671.33977      1257391        0.24549523     218.08568      298.97479      294.93677      298.61144      296.93347      169384.52     -61.551774      100          
   2029000   1258068.9      673.76631      1257395.1      0.24549523     218.87395      287.35944      297.11524      298.86249      295.34176      169479.42      60.515141      94           
   2030000   1258078.5      679.78728      1257398.7      0.24549523     220.82986      302.11034      299.3827       302.67921      295.14298      169429.57     -37.771871      107          
   2031000   1258084.9      676.9682       1257408        0.24549523     219.91408      277.15558      301.54912      295.79141      297.67281      169448.26      26.915875      112          
   2032000   1258076.3      679.06124      1257397.2      0.24549523     220.59401      309.28111      299.66096      300.10274      299.8726       169476.59     -4.5739131      114          
   2033000   1258080.6      675.91529      1257404.6      0.24549523     219.57205      265.558        299.20939      297.00511      301.94403      169432.15     -0.53409598     111          
   2034000   1258078.1      676.5766       1257401.5      0.24549523     219.78687      255.9127       298.41649      298.84765      302.86515      169474.67      24.061037      99           
   2035000   1258078.3      675.09383      1257403.2      0.24549523     219.30519      248.28263      295.96352      300.83335      302.95721      169455.76     -26.201621      104          
   2036000   1258086.9      682.99834      1257403.9      0.24549523     221.87298      253.27485      303.09955      300.09008      301.65629      169457.82      39.196195      107          
   2037000   1258083.1      680.128        1257403        0.24549523     220.94055      254.34764      302.40007      297.94787      300.17999      169415.84     -34.439006      106          
   2038000   1258082.9      679.39352      1257403.5      0.24549523     220.70195      248.48878      301.09605      299.48401      298.94605      169478.46      44.783609      105          
   2039000   1258078.2      670.78395      1257407.5      0.24549523     217.90512      296.3838       297.47771      293.92395      297.43512      169417.73     -42.261104      110          
   2040000   1258087.4      683.87459      1257403.5      0.24549523     222.15763      291.52426      301.34883      304.13791      297.94655      169474.64      43.405423      100          
   2041000   1258078.6      681.06975      1257397.5      0.24549523     221.24648      265.74279      299.76589      302.95229      299.89539      169473.73     -22.131426      100          
   2042000   1258082.3      679.64063      1257402.7      0.24549523     220.78223      250.68865      301.63959      298.06534      302.12786      169462.44      16.475092      105          
   2043000   1258086.7      680.07411      1257406.6      0.24549523     220.92304      250.1889       301.05911      299.3645       302.65885      169457.75      2.0107661      106          
   2044000   1258085        681.5472       1257403.4      0.24549523     221.40158      278.21961      300.94653      301.51612      300.25052      169444.38     -3.0881561      101          
   2045000   1258090.2      682.32456      1257407.9      0.24549523     221.6541       279.05143      301.68947      301.75607      298.57904      169475.42      15.425567      101          
   2046000   1258082.9      674.20923      1257408.7      0.24549523     219.01783      287.01219      299.74254      295.06671      296.78912      169402.82     -4.3016291      98           
   2047000   1258073.1      669.31055      1257403.7      0.24549523     217.42648      277.49953      295.24765      295.58954      298.0306       169510.42      6.6511593      100          
   2048000   1258073.2      678.51642      1257394.7      0.24549523     220.41703      268.04078      298.46924      302.40297      297.78796      169433.7      -0.2102991      103          
   2049000   1258071.8      676.35662      1257395.5      0.24549523     219.71541      325.24601      299.0848       297.46068      298.96892      169454.32      2.4207318      105          
   2050000   1258072.7      677.2722       1257395.5      0.24549523     220.01284      312.10557      299.16414      298.30583      300.558        169450.05      7.4620565      104          
   2051000   1258072.9      678.15399      1257394.8      0.24549523     220.29929      319.59236      299.30985      298.29441      303.32441      169459.36     -3.9298827      102          
   2052000   1258084.9      674.23608      1257410.7      0.24549523     219.02655      288.30142      295.38428      300.18202      302.19109      169471.25      19.012019      99           
   2053000   1258077.2      679.89313      1257397.3      0.24549523     220.86425      264.09664      297.96659      303.71746      301.95224      169422.88     -12.722262      99           
   2054000   1258078.9      672.75987      1257406.1      0.24549523     218.547        271.28782      296.56441      297.8484       298.30373      169485.17      24.729303      100          
   2055000   1258079.5      675.77272      1257403.7      0.24549523     219.52573      272.04932      296.79618      302.28703      294.46291      169429.78     -25.875114      103          
   2056000   1258079.8      671.43159      1257408.4      0.24549523     218.11551      282.8087       297.6813       295.49316      294.42543      169461.76      32.482499      108          
   2057000   1258086.1      686.50609      1257399.6      0.24549523     223.01248      306.61135      303.7912       304.23968      295.1186       169447.42     -24.71659       98           
   2058000   1258085.5      679.42969      1257406.1      0.24549523     220.7137       319.43491      301.36445      298.47197      297.04487      169476.58      27.454986      100          
   2059000   1258082        683.50869      1257398.4      0.24549523     222.03877      280.59874      304.14689      298.5471       302.13833      169466.99     -0.039923021    95           
   2060000   1258080.1      670.90334      1257409.2      0.24549523     217.94391      260.82885      296.62627      294.28876      303.35888      169439.96     -4.8897867      89           
   2061000   1258070.2      676.55105      1257393.7      0.24549523     219.77857      293.71367      298.52847      298.15092      302.48667      169466.86      26.101233      93           
   2062000   1258083        685.71633      1257397.3      0.24549523     222.75593      291.98166      299.90022      307.93534      300.37392      169447.06     -29.42301       85           
   2063000   1258077        674.56582      1257402.4      0.24549523     219.13367      316.2883       295.33133      301.37556      298.113        169469.34      41.767794      85           
   2064000   1258074.2      673.64775      1257400.6      0.24549523     218.83543      329.24368      295.91171      299.88894      295.43784      169420.88     -34.492104      90           
   2065000   1258080        674.55868      1257405.5      0.24549523     219.13135      300.83379      298.58239      297.84252      293.59936      169498.56      34.262552      94           
   2066000   1258084.2      681.26688      1257403        0.24549523     221.31052      295.09787      301.24606      301.74412      295.26781      169429.4      -22.137582      92           
   2067000   1258085.2      683.22565      1257402        0.24549523     221.94683      277.9672       301.42024      303.13534      299.09452      169437.68      23.177738      91           
   2068000   1258078.9      675.04673      1257403.8      0.24549523     219.28989      332.42749      297.75424      297.27089      301.01759      169474.83     -1.5796514      106          
   2069000   1258083.3      684.59092      1257398.7      0.24549523     222.39034      320.09802      300.66357      304.36615      302.71393      169452.61     -3.4475898      98           
   2070000   1258078.6      677.0247       1257401.6      0.24549523     219.93244      306.43061      296.19899      302.45366      301.00757      169476.3       23.099845      83           
   2071000   1258081.5      679.28052      1257402.2      0.24549523     220.66524      308.9292       298.67309      302.09217      298.61093      169405.58     -28.578814      97           
   2072000   1258078.5      678.55697      1257400        0.24549523     220.4302       325.80858      301.11711      298.13623      295.18985      169496.39      41.892501      100          
   2073000   1258082.5      677.37475      1257405.1      0.24549523     220.04615      336.1261       299.59765      299.51382      292.75527      169408.73     -39.188699      104          
   2074000   1258086.2      682.93021      1257403.3      0.24549523     221.85085      309.83364      299.81033      306.24587      293.34523      169468.67      34.508578      100          
   2075000   1258080.1      676.99556      1257403.1      0.24549523     219.92297      327.58385      298.53054      300.05202      295.13616      169435.03     -12.098411      108          
   2076000   1258077        671.34312      1257405.6      0.24549523     218.08677      350.536        295.38314      297.20552      296.01863      169430.37      3.9669924      112          
   2077000   1258083.9      678.93587      1257404.9      0.24549523     220.55329      343.79634      298.42558      301.20466      299.48685      169463.38      12.136127      105          
   2078000   1258072.9      671.09055      1257401.8      0.24549523     218.00472      300.86467      295.47651      296.16036      301.59479      169426.61     -12.867685      101          
   2079000   1258076.5      677.20325      1257399.3      0.24549523     219.99044      350.07565      297.61306      300.29514      299.27709      169498.62      24.818072      101          
   2080000   1258089.1      679.49819      1257409.6      0.24549523     220.73595      332.04071      300.17207      300.32112      296.48978      169420.49     -22.036111      96           
   2081000   1258082.5      678.82456      1257403.7      0.24549523     220.51712      306.36612      299.99832      300.68763      294.41346      169492.98      30.140607      91           
   2082000   1258081.8      680.84887      1257400.9      0.24549523     221.17472      287.73406      300.9135       302.39579      293.49091      169423.86     -25.182457      95           
   2083000   1258084.9      676.03496      1257408.9      0.24549523     219.61092      326.65138      299.46594      297.89598      294.20087      169451.59      23.725721      94           
   2084000   1258074.3      673.11546      1257401.1      0.24549523     218.66252      329.11444      298.85736      294.95411      294.79776      169440.51     -7.8992332      94           
   2085000   1258066.8      674.53824      1257392.2      0.24549523     219.12471      288.06048      296.76187      299.54314      298.28629      169457.86      13.458498      99           
   2086000   1258076.5      678.18053      1257398.3      0.24549523     220.30791      277.81939      300.17502      298.35565      300.86868      169461.41     -8.3467806      97           
   2087000   1258081.6      684.2292       1257397.4      0.24549523     222.27283      237.1358       300.28899      305.7805       302.37792      169439.87      12.781662      91           
   2088000   1258067.6      676.39192      1257391.3      0.24549523     219.72688      216.97143      299.39666      297.79649      301.98285      169461.7      -0.30205296     86           
   2089000   1258084        679.17801      1257404.8      0.24549523     220.63195      292.2533       300.42961      299.52635      298.67636      169481.48     -0.098229768    95           
   2090000   1258084.8      678.04931      1257406.8      0.24549523     220.26529      314.3925       300.9075       297.68608      296.49796      169413.03      8.9388228      100          
   2091000   1258078.7      674.99645      1257403.7      0.24549523     219.27356      271.5472       299.53659      297.36478      293.78918      169438.56     -7.2903378      94           
   2092000   1258076        671.69479      1257404.3      0.24549523     218.20101      307.81614      297.18225      295.8894       295.28775      169487.48      21.083273      105          
   2093000   1258086.2      679.85785      1257406.3      0.24549523     220.85279      286.28227      298.29012      304.14678      296.93296      169431.98     -16.015884      108          
   2094000   1258086.6      679.93901      1257406.6      0.24549523     220.87916      269.87516      297.78292      304.56722      299.62202      169468.14      28.26423       102          
   2095000   1258076.2      676.24476      1257400        0.24549523     219.67907      250.5037       298.47668      298.73846      301.44058      169423.1      -28.971802      92           
   2096000   1258082.1      678.32432      1257403.8      0.24549523     220.35462      266.70762      297.82263      301.99886      301.73272      169477.46      25.516286      95           
   2097000   1258079.6      684.90606      1257394.7      0.24549523     222.49271      280.23908      302.31696      303.47044      300.46867      169435.51     -12.342404      96           
   2098000   1258088.4      682.72966      1257405.7      0.24549523     221.7857       262.54232      301.86574      302.07892      299.19269      169456.36      15.407525      96           
   2099000   1258083.4      683.54401      1257399.9      0.24549523     222.05024      283.6878       299.99323      306.34683      296.35772      169485.21     -4.9793266      104          
   2100000   1258073.8      678.48179      1257395.3      0.24549523     220.40578      281.84147      298.81182      301.62138      297.46305      169428.87      7.5168184      98           
   2101000   1258077.7      672.05084      1257405.7      0.24549523     218.31667      270.70383      295.22541      299.31115      297.33815      169448.26      0.27422257     99           
   2102000   1258083.5      683.06591      1257400.5      0.24549523     221.89493      269.89464      298.85271      306.38385      301.1498       169445.11     -0.28086898     94           
   2103000   1258082        682.29859      1257399.7      0.24549523     221.64567      306.86472      300.97016      301.36453      302.44634      169459.8       11.001679      93           
   2104000   1258077.7      672.51021      1257405.2      0.24549523     218.4659       317.92579      295.283        297.55062      303.0749       169448.01     -4.892172       94           
   2105000   1258074.3      671.34936      1257402.9      0.24549523     218.0888       287.59933      296.10741      295.56831      302.16628      169452.92      16.048611      92           
   2106000   1258080.9      675.5564       1257405.4      0.24549523     219.45546      333.44896      296.85737      299.74298      299.07968      169494.28     -0.40216098     94           
   2107000   1258082.3      679.37689      1257402.9      0.24549523     220.69655      296.69181      300.12858      300.68103      296.82966      169426.57      5.5920718      102          
   2108000   1258076.5      677.91787      1257398.5      0.24549523     220.22259      305.20164      299.08493      300.68406      295.66375      169470.31     -4.2005668      99           
   2109000   1258087.7      689.83707      1257397.9      0.24549523     224.09455      297.97034      304.7187       306.63902      296.75464      169452         4.2535086      103          
   2110000   1258079.5      676.99804      1257402.5      0.24549523     219.92378      309.70724      298.65867      298.71399      300.71397      169435.55      9.0081594      113          
   2111000   1258083.2      683.2435       1257399.9      0.24549523     221.95262      316.63397      299.11772      305.08157      302.56907      169470.95     -3.008319       118          
   2112000   1258069.2      676.9182       1257392.3      0.24549523     219.89784      282.24856      299.64088      296.63799      304.36932      169465.65      10.259187      109          
   2113000   1258074        676.4459       1257397.6      0.24549523     219.74442      273.39778      297.54352      299.52768      303.71038      169463.84     -5.1278834      104          
   2114000   1258080.7      683.25267      1257397.5      0.24549523     221.9556       296.26147      303.56101      299.04895      301.5546       169436.55      12.987856      112          
   2115000   1258082.7      676.93         1257405.7      0.24549523     219.90168      333.78581      300.9158       296.09304      295.72832      169468.38     -4.8229827      117          
   2116000   1258079.2      678.99914      1257400.2      0.24549523     220.57384      318.79912      302.79198      296.44504      294.34188      169468.87      5.7239616      120          
   2117000   1258078.1      674.63887      1257403.5      0.24549523     219.1574       248.70355      297.91887      299.5479       294.8152       169438.09      3.1600785      111          
   2118000   1258086.5      679.68189      1257406.8      0.24549523     220.79563      299.78592      303.1606       296.65828      295.99427      169479.13     -0.91999488     116          
   2119000   1258085.8      684.58581      1257401.2      0.24549523     222.38868      325.17643      302.02878      303.88721      296.19937      169434.5       11.740518      113          
   2120000   1258085        686.55379      1257398.5      0.24549523     223.02798      274.34107      304.87659      301.51959      301.67438      169461.36     -7.5503961      120          
   2121000   1258078.2      676.94909      1257401.2      0.24549523     219.90788      265.59333      299.22029      298.68445      300.67323      169457.99      12.669244      120          
   2122000   1258082.8      682.88821      1257399.9      0.24549523     221.83721      277.91687      299.70685      304.84328      301.30526      169449.21     -2.2207908      127          
   2123000   1258080.7      676.28008      1257404.4      0.24549523     219.69055      291.79252      299.37686      297.28053      299.78202      169451.78     -0.72665176     117          
   2124000   1258082.6      678.77138      1257403.9      0.24549523     220.49985      276.88539      301.81807      297.66331      297.2006       169437.19      9.8256407      117          
   2125000   1258082.2      677.21528      1257405        0.24549523     219.99435      233.86955      301.20748      297.58925      296.42999      169458.36     -6.6061925      110          
   2126000   1258076.1      670.02467      1257406.1      0.24549523     217.65847      251.75589      296.1404       296.58971      294.35415      169437.57      11.457176      107          
   2127000   1258077.8      674.95272      1257402.9      0.24549523     219.25935      271.06299      298.32236      298.62811      295.87978      169474.62      6.8707793      104          
   2128000   1258083.5      681.72885      1257401.8      0.24549523     221.46059      286.50599      303.16832      298.91137      297.84724      169448.53     -14.633121      111          
   2129000   1258079.8      679.67865      1257400.1      0.24549523     220.79458      304.39202      299.14991      301.85152      298.96814      169436.59      32.877305      112          
   2130000   1258076        677.8211       1257398.2      0.24549523     220.19115      332.4814       300.71425      296.8275       298.60015      169446.08     -26.191751      105          
   2131000   1258080.8      681.91753      1257398.9      0.24549523     221.52188      344.14636      301.9091       300.11996      297.54226      169476.57      33.226131      111          
   2132000   1258083.7      679.67919      1257404        0.24549523     220.79475      340.61583      298.39453      303.22479      295.76003      169427.74     -18.924826      104          
   2133000   1258082.3      676.93442      1257405.4      0.24549523     219.90311      359.8019       297.64488      301.04536      294.32849      169462.56      15.862379      106          
   2134000   1258082.3      686.85602      1257395.4      0.24549523     223.12616      329.10649      305.42052      302.21465      293.50569      169433.48      4.7209569      113          
   2135000   1258088.3      676.30361      1257412        0.24549523     219.69819      324.8385       296.34361      302.83539      294.02922      169451.56     -9.5371352      112          
   2136000   1258085.3      683.79962      1257401.5      0.24549523     222.13328      331.03493      306.68205      296.05514      295.66685      169421.91      29.164085      105          
   2137000   1258080.7      682.57034      1257398.1      0.24549523     221.73395      327.56335      299.24864      305.52299      296.79829      169475.58     -33.804964      102          
   2138000   1258081        679.46596      1257401.6      0.24549523     220.72549      347.81211      300.17955      299.83364      297.14633      169476.28      46.672717      98           
   2139000   1258080.6      674.72316      1257405.9      0.24549523     219.18478      352.96676      298.545        296.54516      296.6565       169379.37     -38.5572        95           
   2140000   1258074        672.30294      1257401.7      0.24549523     218.39857      308.20739      298.58593      294.27958      296.28151      169512.7       36.461316      93           
   2141000   1258076.1      679.23392      1257396.9      0.24549523     220.6501       348.10398      296.96754      304.983        294.83758      169400.08     -19.527646      95           
   2142000   1258078.5      678.25461      1257400.2      0.24549523     220.33197      332.66265      300.9837       297.77914      295.58196      169490.86      15.443588      100          
   2143000   1258076.8      680.14896      1257396.7      0.24549523     220.94736      322.15627      301.29632      299.56955      296.41963      169445.93     -0.079593047    103          
   2144000   1258085.9      686.56351      1257399.4      0.24549523     223.03114      338.2771       305.49016      300.76781      297.06721      169469.11      2.5409638      95           
   2145000   1258087.2      680.88262      1257406.4      0.24549523     221.18569      346.27554      300.8236       300.68529      296.99989      169452.59      10.156799      97           
   2146000   1258084        681.09372      1257402.9      0.24549523     221.25427      329.46042      300.59258      301.30007      297.88091      169409.28     -10.283973      100          
   2147000   1258077.6      670.85758      1257406.8      0.24549523     217.92904      339.88685      297.90289      292.64507      297.76384      169495.02      26.240359      97           
   2148000   1258085.6      684.03967      1257401.6      0.24549523     222.21126      324.09396      302.4908       302.46054      296.87961      169418.07     -12.563917      90           
   2149000   1258083.8      683.47867      1257400.3      0.24549523     222.02902      285.87586      299.13558      307.46413      296.49524      169486.54      20.991244      92           
   2150000   1258079.9      675.52132      1257404.4      0.24549523     219.44406      292.36134      298.84836      298.12233      295.98083      169443.47     -16.577507      96           
   2151000   1258088.7      684.005        1257404.7      0.24549523     222.2          270.80172      298.86727      308.57656      296.97588      169466.75      19.154885      100          
   2152000   1258083.4      682.45339      1257400.9      0.24549523     221.69596      279.14081      303.559        299.51611      296.99669      169456.87     -9.9254805      101          
   2153000   1258085.8      680.78853      1257405        0.24549523     221.15512      242.72408      300.8965       301.6709       298.45751      169432.92      17.98468       99           
   2154000   1258085.7      684.43734      1257401.3      0.24549523     222.34044      291.39462      303.95981      300.83828      298.3077       169488.44     -5.7119243      105          
   2155000   1258079.5      684.21569      1257395.3      0.24549523     222.26844      306.27795      303.30258      301.39664      298.00305      169434.53      9.8801784      99           
   2156000   1258079.3      674.07448      1257405.2      0.24549523     218.97405      284.56203      299.02285      296.07839      296.57411      169473.55     -1.5369393      98           
   2157000   1258079.6      680.54977      1257399        0.24549523     221.07756      298.47321      298.62549      304.74895      295.36268      169438.02      9.9026554      92           
   2158000   1258083.1      678.64469      1257404.5      0.24549523     220.4587       317.38923      300.00042      300.02697      295.41133      169480.2       4.1378811      99           
   2159000   1258075.9      669.0599       1257406.8      0.24549523     217.34506      276.57805      294.61345      296.77353      295.98148      169400.34     -3.5114246      94           
   2160000   1258090.9      687.87847      1257403        0.24549523     223.4583       279.50299      304.3622       305.18475      296.16945      169511.75      14.221224      91           
   2161000   1258088        679.75279      1257408.3      0.24549523     220.81866      272.61717      300.85549      299.90978      298.3407       169447.19     -9.7519795      82           
   2162000   1258089        684.25395      1257404.7      0.24549523     222.28087      283.56961      303.64748      300.68869      300.46523      169442.4       15.272856      85           
   2163000   1258084.2      677.31506      1257406.9      0.24549523     220.02676      275.6174       299.94282      297.8369       300.06552      169449.49     -7.1983198      84           
   2164000   1258090.8      682.44578      1257408.3      0.24549523     221.69348      247.09613      301.07954      303.12559      298.70967      169476.33      10.761678      81           
   2165000   1258083        684.52283      1257398.5      0.24549523     222.36822      268.60529      303.22457      302.9228       296.03152      169455.26      3.016134       81           
   2166000   1258087.7      683.6407       1257404.1      0.24549523     222.08166      317.20171      301.82236      304.15767      293.02644      169407.6      -2.3554209      75           
   2167000   1258077.5      674.69341      1257402.8      0.24549523     219.17512      307.29463      297.0956       300.43565      292.83921      169523.25      20.408279      73           
   2168000   1258084.7      677.40387      1257407.3      0.24549523     220.05561      300.70841      298.99812      300.72186      293.75943      169388.14     -17.535478      66           
   2169000   1258080.5      681.26726      1257399.2      0.24549523     221.31064      323.26131      301.14136      301.52406      295.59181      169480.62      32.478699      70           
   2170000   1258083        675.57422      1257407.4      0.24549523     219.46125      280.47008      299.0963       297.1881       298.91027      169442.29     -27.805268      75           
   2171000   1258084.3      678.97985      1257405.3      0.24549523     220.56757      286.89707      300.10135      299.38654      300.51972      169460.06      29.55484       77           
   2172000   1258077.8      674.88952      1257402.9      0.24549523     219.23882      267.44804      297.43373      298.52191      300.88583      169468.94     -16.321119      76           
   2173000   1258082.3      676.71041      1257405.6      0.24549523     219.83034      290.21562      297.41084      300.82147      299.59073      169397.71      10.466328      74           
   2174000   1258073        675.68944      1257397.3      0.24549523     219.49868      274.68505      296.26166      301.82537      298.30865      169519.68      16.49531       71           
   2175000   1258082.9      684.83506      1257398.1      0.24549523     222.46965      309.99281      301.82722      305.18659      294.92372      169408.13     -18.510981      77           
   2176000   1258080.1      675.54708      1257404.5      0.24549523     219.45243      319.44934      298.53439      299.09386      293.02898      169497.33      23.853468      82           
   2177000   1258072.4      673.09517      1257399.3      0.24549523     218.65593      320.42124      298.28812      296.43149      293.1854       169402.32     -27.982271      84           
   2178000   1258081.8      678.93171      1257402.8      0.24549523     220.55193      337.88139      299.76773      300.55897      294.9494       169511.99      36.935691      90           
   2179000   1258080.9      671.97584      1257409        0.24549523     218.29231      282.12696      297.25908      296.12987      296.72413      169424.5      -28.551699      90           
   2180000   1258083.5      679.74161      1257403.7      0.24549523     220.81503      289.43401      303.40184      295.82806      298.43611      169448.36      26.086155      90           
   2181000   1258085.2      680.6569       1257404.5      0.24549523     221.11236      313.55761      301.59526      298.98463      299.92159      169459.82     -2.6380677      93           
   2182000   1258090.8      679.61793      1257411.2      0.24549523     220.77485      294.68828      300.63098      299.20612      300.74487      169436.63      3.8240102      90           
   2183000   1258084.6      685.73564      1257398.9      0.24549523     222.7622       293.41055      303.55104      302.62308      299.56545      169451.28      14.572739      84           
   2184000   1258087.6      682.00669      1257405.6      0.24549523     221.55084      328.25255      299.39781      304.35918      297.50993      169417.97     -18.266727      90           
   2185000   1258091.6      682.54785      1257409.1      0.24549523     221.72664      311.65532      302.11102      301.34673      296.76049      169476.47      34.334309      94           
   2186000   1258092.9      682.74665      1257410.2      0.24549523     221.79122      308.91835      300.4751       304.04043      297.05079      169390.77     -30.717511      92           
   2187000   1258087.3      678.99039      1257408.3      0.24549523     220.57099      309.61273      302.58058      296.50639      296.1634       169504.26      40.936507      93           
   2188000   1258078.4      671.05216      1257407.3      0.24549523     217.99225      253.01311      296.45172      296.12173      298.4116       169396.46     -27.858429      83           
   2189000   1258079.1      676.83626      1257402.3      0.24549523     219.87122      280.85769      298.23494      299.9149       299.47398      169475.16      29.707135      87           
   2190000   1258080.6      680.87449      1257399.7      0.24549523     221.18305      305.82281      299.82429      301.57011      301.63708      169429.14     -16.570775      89           
   2191000   1258078.1      679.22995      1257398.8      0.24549523     220.64882      299.50676      298.27305      302.02451      301.1474       169435.5       8.7212545      96           
   2192000   1258083.8      683.96721      1257399.8      0.24549523     222.18772      274.7385       301.94183      302.83085      300.8733       169489.3       13.930822      90           
   2193000   1258083.7      685.0455       1257398.7      0.24549523     222.53801      273.52565      301.56218      304.91633      300.34286      169398.97     -21.370647      97           
   2194000   1258080.4      676.02409      1257404.4      0.24549523     219.60739      302.81135      298.90414      297.86353      298.48421      169504.61      42.097139      102          
   2195000   1258075        673.23354      1257401.8      0.24549523     218.70087      282.88933      297.62996      296.7891       298.11819      169405.74     -37.606315      105          
   2196000   1258084.8      682.2564       1257402.5      0.24549523     221.63196      286.34604      300.1386       303.57544      299.8355       169492.3       41.125548      101          
   2197000   1258085.6      682.75728      1257402.8      0.24549523     221.79468      305.82483      304.31277      297.42201      300.53136      169415.98     -25.721599      97           
   2198000   1258090.1      687.82408      1257402.3      0.24549523     223.44063      343.08613      302.62693      305.72815      300.00447      169487.32      23.147921      97           
   2199000   1258088        684.74811      1257403.3      0.24549523     222.4414       304.94272      303.11777      301.62268      300.68986      169467.7      -1.3544209      92           
   2200000   1258088.8      680.89144      1257407.9      0.24549523     221.18855      298.38687      301.10995      300.22858      299.68479      169428.88     -5.0199518      88           
   2201000   1258093.8      685.44988      1257408.3      0.24549523     222.66937      308.55604      304.05734      301.71462      298.16829      169485.42      23.039508      90           
   2202000   1258085.8      677.23804      1257408.5      0.24549523     220.00174      269.59645      299.86654      298.44864      298.43629      169424.88     -28.280047      100          
   2203000   1258082.7      680.06383      1257402.6      0.24549523     220.9197       307.98492      299.87981      301.52246      297.56482      169482.57      35.506788      103          
   2204000   1258078.7      681.58593      1257397.2      0.24549523     221.41416      270.52461      299.39307      305.01587      296.63209      169447.58     -30.339832      99           
   2205000   1258087.6      678.51549      1257409.1      0.24549523     220.41672      261.4632       298.53991      302.18518      298.19874      169462.09      30.542873      98           
   2206000   1258075.7      676.53949      1257399.2      0.24549523     219.77482      318.24842      297.0526       301.34482      297.36277      169438.15     -18.787473      98           
   2207000   1258079.8      679.50783      1257400.3      0.24549523     220.73908      279.6909       300.71716      299.53821      299.38223      169466.58      9.4146785      97           
   2208000   1258082.9      678.11889      1257404.8      0.24549523     220.28789      304.84801      299.24558      299.95674      298.30735      169481.44      12.190894      103          
   2209000   1258079.3      678.63077      1257400.6      0.24549523     220.45417      277.28003      301.41879      297.5999       298.6332       169423.11     -16.35762       100          
   2210000   1258079.8      672.46052      1257407.3      0.24549523     218.44976      269.31365      297.33158      296.80457      296.98584      169481.26      35.659574      98           
   2211000   1258086.4      678.30987      1257408.1      0.24549523     220.34993      282.90353      300.22604      300.11445      294.30544      169430.39     -40.561976      103          
   2212000   1258082.2      681.2419       1257401        0.24549523     221.3024       304.30047      301.29298      301.87313      293.89922      169485.77      52.573163      104          
   2213000   1258079.3      673.47594      1257405.8      0.24549523     218.77962      319.3684       297.82786      297.34536      293.89459      169415.64     -46.688434      98           
   2214000   1258085.2      683.08889      1257402.1      0.24549523     221.9024       305.12489      301.49134      303.14653      296.28555      169467.39      44.534176      98           
   2215000   1258083.5      678.25508      1257405.3      0.24549523     220.33213      265.46607      297.92142      302.41114      299.39648      169445.05     -24.851482      96           
   2216000   1258081.3      682.03824      1257399.2      0.24549523     221.56109      246.61311      301.61198      301.62858      299.93397      169450.26      14.494843      93           
   2217000   1258090.4      683.29593      1257407.1      0.24549523     221.96966      279.82438      302.68911      300.94108      300.31018      169489.31      9.1688352      81           
   2218000   1258084.7      681.37992      1257403.3      0.24549523     221.34724      323.39763      299.75998      302.6419       299.48985      169416.77     -14.036999      82           
   2219000   1258078.6      678.20621      1257400.4      0.24549523     220.31625      278.98986      300.18898      299.11901      297.81897      169484.1       34.579856      84           
   2220000   1258075.5      675.98099      1257399.5      0.24549523     219.59339      275.28339      297.83853      300.47297      296.16997      169411.32     -34.171122      92           
   2221000   1258081.4      681.7085       1257399.7      0.24549523     221.45398      258.47258      301.08497      303.02702      295.42442      169489.94      44.813917      96           
   2222000   1258073.6      672.08776      1257401.5      0.24549523     218.32867      261.9087       297.10095      296.68877      297.3665       169426.3      -42.146946      99           
   2223000   1258081.7      676.90425      1257404.8      0.24549523     219.89331      247.04486      296.66831      302.75864      299.94992      169464.51      39.479416      99           
   2224000   1258072.1      669.43577      1257402.6      0.24549523     217.46716      303.47432      296.2651       292.98831      301.2567       169481.79     -16.271127      98           
   2225000   1258082.6      681.76089      1257400.9      0.24549523     221.471        276.89131      297.75612      305.5727       303.97899      169407.25      1.7827589      94           
   2226000   1258080.8      680.96952      1257399.8      0.24549523     221.21392      307.98958      302.08927      297.40321      304.60495      169479.74      22.890722      109          
   2227000   1258074.7      676.25947      1257398.4      0.24549523     219.68385      306.29343      298.85944      296.95677      302.88265      169421        -27.869406      103          
   2228000   1258075.5      672.12497      1257403.3      0.24549523     218.34076      322.89647      296.54015      295.82056      300.42533      169474.71      49.781822      93           
   2229000   1258079.8      684.35709      1257395.4      0.24549523     222.31438      332.92705      299.96685      306.02462      298.54224      169420.14     -47.969334      100          
   2230000   1258085.2      681.74355      1257403.5      0.24549523     221.46536      328.04075      298.28462      305.25941      299.05365      169464.34      56.410211      105          
   2231000   1258080.7      675.32787      1257405.4      0.24549523     219.38122      336.19408      297.08742      298.7636       299.97503      169467.11     -32.210555      110          
   2232000   1258073.1      673.75591      1257399.3      0.24549523     218.87057      307.83561      297.1264       296.8266       301.6363       169437.84      22.866722      109          
   2233000   1258086.3      682.05324      1257404.3      0.24549523     221.56597      269.99908      300.22099      302.45744      303.47632      169476.55      0.22242905     101          
   2234000   1258087.1      685.9252       1257401.2      0.24549523     222.82378      280.10778      302.03501      303.92847      305.09678      169415.53     -14.601055      98           
   2235000   1258077.1      678.5034       1257398.6      0.24549523     220.4128       283.06818      297.21224      301.49733      306.68461      169496.43      41.930352      93           
   2236000   1258088.7      681.29033      1257407.4      0.24549523     221.31813      284.60798      299.08262      302.36864      306.03449      169366.27     -53.745026      103          
   2237000   1258080.5      682.49244      1257398        0.24549523     221.70864      287.10344      301.01927      301.46053      304.13347      169498.41      68.284895      112          
   2238000   1258081.4      680.10195      1257401.3      0.24549523     220.93209      297.51988      299.60051      300.48882      303.95669      169428.62     -60.670339      113          
   2239000   1258088.5      688.02726      1257400.5      0.24549523     223.50663      325.47813      304.26693      302.86349      303.60039      169477.14      64.371896      107          
   2240000   1258080.7      679.90809      1257400.8      0.24549523     220.86911      309.32183      301.26589      297.66676      303.43566      169409.91     -42.966421      108          
   2241000   1258085.7      685.47098      1257400.3      0.24549523     222.67622      327.43051      303.24372      301.36333      303.02346      169504.69      34.119801      101          
   2242000   1258084.7      682.23599      1257402.5      0.24549523     221.62533      291.85299      301.17923      300.54622      304.86769      169431.12      1.6770175      92           
   2243000   1258071.8      672.48418      1257399.3      0.24549523     218.45744      280.29676      294.01472      299.77796      304.22111      169413.87     -20.81732       91           
   2244000   1258079.1      678.30049      1257400.8      0.24549523     220.34688      281.65258      296.88447      302.78192      303.20158      169509.51      48.432466      99           
   2245000   1258072.9      676.65983      1257396.2      0.24549523     219.81391      281.02174      298.81251      298.36628      301.45187      169391.44     -57.68131       100          
   2246000   1258086.2      682.40736      1257403.8      0.24549523     221.681        285.44767      301.6355       301.57394      299.59486      169484.89      69.99461       95           
   2247000   1258074.1      676.97361      1257397.1      0.24549523     219.91584      280.892        299.47731      298.44276      298.72631      169395.92     -58.743225      97           
   2248000   1258076        673.92343      1257402.1      0.24549523     218.92499      318.29209      297.59789      296.84386      299.11913      169533.92      60.653996      97           
   2249000   1258089.4      684.8919       1257404.5      0.24549523     222.48811      280.41789      300.48498      306.08748      300.78093      169395.9      -45.413692      85           
   2250000   1258085.4      678.13891      1257407.3      0.24549523     220.29439      277.10927      302.0687       294.85457      302.98901      169461.15      41.92672       85           
   2251000   1258085        683.664        1257401.3      0.24549523     222.08922      303.04603      301.06825      302.6799       303.46588      169455.3      -16.157834      82           
   2252000   1258084.1      676.88822      1257407.2      0.24549523     219.8881       304.0989       296.13841      301.47615      304.48557      169433.22      5.8166578      80           
   2253000   1258077.4      677.77895      1257399.6      0.24549523     220.17746      296.10268      299.32528      298.11169      303.61929      169471.25      22.954134      81           
   2254000   1258083.4      681.03128      1257402.4      0.24549523     221.23398      277.45176      300.2837       301.62644      301.15063      169406.1      -36.036763      88           
   2255000   1258084.6      684.69995      1257399.9      0.24549523     222.42576      317.75711      303.35119      301.33664      299.59375      169516.17      59.949033      90           
   2256000   1258085.6      679.51349      1257406        0.24549523     220.74092      295.1248       302.20197      297.23183      298.87137      169381.66     -60.307011      93           
   2257000   1258073.8      667.15704      1257406.7      0.24549523     216.72692      296.88         293.496        294.87488      299.67001      169499.53      74.819943      100          
   2258000   1258069.3      675.54131      1257393.7      0.24549523     219.45056      321.51673      297.78261      298.41617      299.42809      169437.25     -63.520474      99           
   2259000   1258085.3      676.77123      1257408.5      0.24549523     219.8501       308.65514      297.5607       300.01024      301.10776      169463.45      58.371252      106          
   2260000   1258080.5      681.03674      1257399.5      0.24549523     221.23576      335.74845      297.82894      304.17302      301.92419      169431.55     -25.914663      105          
   2261000   1258091.1      687.80399      1257403.3      0.24549523     223.43411      355.42967      303.88605      303.00174      302.42054      169470.93      9.3313295      96           
   2262000   1258087.9      680.466        1257407.5      0.24549523     221.05035      350.61406      303.01964      295.6613       301.24328      169481.76      22.919668      99           
   2263000   1258089.4      680.85833      1257408.6      0.24549523     221.1778       299.09422      301.33972      299.68418      300.66738      169385.46     -42.31563       102          
   2264000   1258085.7      682.15528      1257403.5      0.24549523     221.59911      332.67834      300.77681      301.26797      301.67306      169512.28      62.412903      101          
   2265000   1258074.6      675.52388      1257399.1      0.24549523     219.44489      323.83744      298.76908      296.61974      300.40821      169393.58     -67.440977      98           
   2266000   1258092.2      688.05881      1257404.1      0.24549523     223.51688      317.80543      305.62407      301.72236      300.76187      169492.88      81.097932      98           
   2267000   1258081.3      676.9828       1257404.4      0.24549523     219.91883      295.62706      298.51979      298.80655      301.82561      169401.78     -67.974358      100          
   2268000   1258088.9      681.46477      1257407.5      0.24549523     221.3748       325.8327       300.42156      300.99631      301.70547      169492.71      51.092484      116          
   2269000   1258087.6      679.69163      1257407.9      0.24549523     220.79879      307.44132      301.97782      296.12786      304.32033      169456.14     -24.04849       109          
   2270000   1258081.8      680.60056      1257401.2      0.24549523     221.09406      297.7444       302.75628      296.42148      303.62534      169398.27      13.927202      106          
   2271000   1258084.1      678.40381      1257405.7      0.24549523     220.38044      330.08896      298.07726      300.46579      302.73785      169480.08      10.828576      103          
   2272000   1258090.6      684.49736      1257406.1      0.24549523     222.35994      317.83676      305.57131      296.98081      302.39542      169444.72     -22.43927       101          
   2273000   1258079.4      676.67174      1257402.7      0.24549523     219.81778      297.71631      299.45105      296.45875      303.99369      169475.05      48.897728      99           
   2274000   1258084.5      684.24253      1257400.3      0.24549523     222.27716      271.86913      300.32339      304.74491      304.22863      169383.88     -52.367019      89           
   2275000   1258083.5      674.5986       1257408.9      0.24549523     219.14432      280.54322      297.98142      296.39872      303.76755      169521.2       61.62767       86           
   2276000   1258080.5      674.226        1257406.3      0.24549523     219.02328      302.3431       296.85149      297.33194      303.82756      169394.12     -47.519016      96           
   2277000   1258078.5      678.77515      1257399.7      0.24549523     220.50107      283.85135      299.3228       299.40922      304.223        169448.43      42.921754      99           
   2278000   1258085.8      685.83789      1257399.9      0.24549523     222.79542      279.83913      303.36754      302.52466      302.43031      169493.3      -21.53138       97           
   2279000   1258085.4      684.54246      1257400.9      0.24549523     222.37459      281.31897      305.48572      297.76352      302.18954      169426.19      4.5166762      90           
   2280000   1258082.7      679.03041      1257403.7      0.24549523     220.58399      294.39132      298.17273      301.99806      301.45243      169434.38      15.979843      91           
   2281000   1258090.2      679.46562      1257410.7      0.24549523     220.72537      294.20792      300.02948      299.54703      302.20213      169444.72     -27.79441       94           
   2282000   1258083.8      676.94151      1257406.9      0.24549523     219.90542      276.20232      299.31335      297.83653      302.04452      169485.43      44.406569      96           
   2283000   1258081.2      681.77913      1257399.4      0.24549523     221.47692      281.55379      301.76363      300.12081      301.51489      169366.5      -42.213502      91           
   2284000   1258086.3      680.75514      1257405.5      0.24549523     221.14428      282.26319      300.15302      301.0653       302.31128      169482.29      43.286371      99           
   2285000   1258090.1      683.16411      1257406.9      0.24549523     221.92683      279.16412      300.91694      303.02573      302.10888      169424.82     -32.579261      99           
   2286000   1258076.9      674.71469      1257402.2      0.24549523     219.18203      286.23119      297.6931       297.22282      302.47687      169497.53      27.767713      91           
   2287000   1258086.5      678.02754      1257408.5      0.24549523     220.25821      306.82211      300.81876      296.37043      302.16858      169397.04     -15.405486      96           
   2288000   1258088.9      683.72873      1257405.1      0.24549523     222.11025      300.5282       301.41797      302.66783      301.98239      169491.3       10.715407      102          
   2289000   1258085.7      683.18552      1257402.5      0.24549523     221.93379      324.06382      300.83487      302.32536      302.45528      169463.38      6.2339931      111          
   2290000   1258088.8      683.17096      1257405.6      0.24549523     221.92906      325.10407      304.23453      296.93468      303.43701      169400.7      -4.2947405      111          
   2291000   1258087.3      680.96747      1257406.4      0.24549523     221.21325      303.81058      301.74952      297.88703      305.16907      169472.08      23.866763      110          
   2292000   1258091.4      683.29587      1257408.1      0.24549523     221.96964      293.32994      305.076        295.71879      305.98762      169433.92     -19.286517      117          
   2293000   1258086.4      679.92336      1257406.4      0.24549523     220.87407      261.7182       297.84983      302.73854      307.1588       169487.3       33.396128      120          
   2294000   1258085.9      681.69748      1257404.2      0.24549523     221.4504       267.43551      300.70611      300.53971      306.97083      169405.13     -22.881116      116          
   2295000   1258079.5      681.24503      1257398.2      0.24549523     221.30342      273.43076      300.44736      300.66868      305.47307      169462.37      25.000862      109          
   2296000   1258083.8      683.87182      1257399.9      0.24549523     222.15673      308.01397      301.96491      301.80005      302.70026      169434.81     -11.078697      117          
   2297000   1258083.5      678.2237       1257405.3      0.24549523     220.32193      309.4444       297.14535      302.11394      302.15559      169447.45      6.8577928      114          
   2298000   1258084.1      685.29883      1257398.8      0.24549523     222.6203       296.33253      302.85945      301.87527      304.25791      169464.6       8.4036227      116          
   2299000   1258077.8      677.2515       1257400.5      0.24549523     220.00611      282.16175      299.60267      297.0374       304.69649      169471.73     -10.924884      115          
   2300000   1258079.2      677.82473      1257401.4      0.24549523     220.19233      297.28653      297.81414      299.66895      306.70674      169451.89      14.971261      128          
   2301000   1258074.2      679.00789      1257395.2      0.24549523     220.57668      295.84335      296.81149      302.66055      306.76278      169447.51     -0.58646464     136          
   2302000   1258077        678.46363      1257398.5      0.24549523     220.39988      272.12267      293.56672      307.03576      307.81954      169478.81     -1.0600334      131          
   2303000   1258087.7      678.01377      1257409.7      0.24549523     220.25374      305.2611       296.98069      301.10264      306.19976      169441.93      13.249416      127          
   2304000   1258085.6      682.92312      1257402.7      0.24549523     221.84855      292.03924      299.98916      303.13474      305.24768      169413.94     -11.769545      120          
   2305000   1258081.7      680.02587      1257401.7      0.24549523     220.90737      267.51552      299.30608      301.38044      303.80401      169477.64      29.15087       114          
   2306000   1258080        675.29044      1257404.7      0.24549523     219.36906      266.97264      297.97987      297.61182      303.56361      169457.31     -16.646051      107          
   2307000   1258085.4      685.64907      1257399.8      0.24549523     222.73408      297.15903      301.88854      303.50907      305.27609      169412.91      25.28183       106          
   2308000   1258079.8      677.63671      1257402.2      0.24549523     220.13125      280.82689      295.63986      302.80227      307.12416      169496.56     -16.053392      97           
   2309000   1258076.7      680.21459      1257396.5      0.24549523     220.96868      267.1518       297.75254      302.96489      307.21284      169484.08      20.75278       99           
   2310000   1258079.6      680.42884      1257399.2      0.24549523     221.03828      272.7402       298.82797      301.05272      309.15685      169418.73     -0.011410889    101          
   2311000   1258080.9      683.10978      1257397.8      0.24549523     221.90919      289.54111      303.14988      297.30841      310.19203      169456.8       4.1710966      103          
   2312000   1258079.1      680.079        1257399        0.24549523     220.92463      316.80144      299.75693      298.56449      308.79801      169459.46      12.174542      103          
   2313000   1258084.6      687.40755      1257397.2      0.24549523     223.30532      282.40987      305.05737      300.21835      308.88868      169434.12     -10.90949       111          
   2314000   1258084.4      679.03571      1257405.4      0.24549523     220.58572      282.32245      299.44316      298.7153       308.03113      169475.36      24.142491      107          
   2315000   1258083.3      678.87892      1257404.4      0.24549523     220.53478      291.38658      297.24623      301.6613       307.58723      169453.11     -20.688748      110          
   2316000   1258087.6      683.57482      1257404        0.24549523     222.06025      290.19079      300.70577      302.5315       306.69467      169462.03      31.142317      109          
   2317000   1258079.5      681.28505      1257398.2      0.24549523     221.31642      308.78987      300.49741      299.55019      306.83923      169430.24     -21.706125      114          
   2318000   1258085.4      688.52034      1257396.9      0.24549523     223.66681      324.29524      302.7858       304.49561      307.93793      169481.63      24.952069      121          
   2319000   1258083.8      679.17303      1257404.6      0.24549523     220.63033      316.8938       297.70146      300.3869       309.48713      169444.38     -16.501079      119          
   2320000   1258076.7      679.65026      1257397        0.24549523     220.78535      326.8477       296.93257      301.686        310.57928      169465.54      17.055905      108          
   2321000   1258074.4      680.6288       1257393.7      0.24549523     221.10324      306.80479      300.4248       298.15692      309.89592      169447.71     -0.59705214     107          
   2322000   1258085.8      683.23944      1257402.6      0.24549523     221.95131      334.71713      302.8957       297.489        308.95275      169446.88     -3.560862       103          
   2323000   1258083.8      684.28771      1257399.5      0.24549523     222.29184      347.85152      301.62691      300.38902      309.24762      169432.02      8.1235001      97           
   2324000   1258091.5      689.81096      1257401.7      0.24549523     224.08607      325.66383      304.0443       304.18733      307.96409      169468.7      -3.8591314      97           
   2325000   1258086.2      678.69828      1257407.5      0.24549523     220.4761       300.62901      299.23323      298.51351      306.7098       169468.41      10.08588       90           
   2326000   1258084.9      686.53379      1257398.4      0.24549523     223.02148      330.85585      302.49626      303.12124      305.77864      169437.38     -7.109613       100          
   2327000   1258085.9      677.64056      1257408.3      0.24549523     220.1325       311.21828      298.85294      297.75138      306.55322      169442.15      24.020718      96           
   2328000   1258088.1      686.10332      1257402        0.24549523     222.88164      332.88966      302.24631      302.25817      307.96761      169450.98     -28.837081      97           
   2329000   1258081.1      681.76068      1257399.4      0.24549523     221.47093      312.99292      298.06226      302.64357      311.25403      169479.76      35.710998      94           
   2330000   1258090.4      686.67585      1257403.8      0.24549523     223.06763      304.44252      299.27213      306.83322      311.82508      169429.91     -29.833272      86           
   2331000   1258087.6      684.12404      1257403.4      0.24549523     222.23867      329.64572      300.38402      302.01486      310.6137       169493.22      37.882217      83           
   2332000   1258083        684.70709      1257398.3      0.24549523     222.42807      311.58807      303.06948      299.2996       309.2203       169431.39     -21.871257      86           
   2333000   1258075.8      675.1086       1257400.7      0.24549523     219.30999      291.94982      294.52558      301.18359      307.11218      169443.73      18.418525      89           
   2334000   1258088.2      682.10725      1257406.1      0.24549523     221.58351      277.17469      297.99831      305.44064      304.51185      169445.34     -6.6800102      83           
   2335000   1258084        674.9572       1257409        0.24549523     219.26081      291.79211      297.21306      297.59327      304.57034      169445.51      2.4451144      84           
   2336000   1258079.7      680.98982      1257398.7      0.24549523     221.22051      257.41723      302.34084      297.55638      305.42027      169453.76      10.44712       84           
   2337000   1258077.8      675.16297      1257402.6      0.24549523     219.32765      284.21145      296.84226      298.01133      306.57622      169440.33     -11.804714      87           
   2338000   1258090.1      682.72678      1257407.4      0.24549523     221.78477      278.68368      298.29766      304.82792      307.90382      169481.81      28.17945       83           
   2339000   1258085.3      681.0985       1257404.2      0.24549523     221.25582      312.4211       298.89269      301.16821      309.09634      169446.86     -29.770361      86           
   2340000   1258079.5      679.29299      1257400.2      0.24549523     220.6693       307.03256      298.30583      299.44289      310.94152      169463.35      45.342914      90           
   2341000   1258088.6      685.66188      1257402.9      0.24549523     222.73824      280.16704      302.88207      300.82892      310.46283      169473.08     -38.425896      82           
   2342000   1258084.1      683.66582      1257400.4      0.24549523     222.08981      285.88437      302.12133      300.05357      308.37747      169450.7       42.064252      96           
   2343000   1258077.1      672.85521      1257404.2      0.24549523     218.57797      308.32258      296.44108      295.66468      305.73453      169452.15     -25.035689      101          
   2344000   1258084.3      683.07263      1257401.2      0.24549523     221.89712      314.5507       306.49493      293.63304      303.46449      169449.33      23.563311      95           
   2345000   1258075.5      675.24748      1257400.2      0.24549523     219.35511      283.60591      296.16969      300.49995      301.47741      169455.87      3.8403365      97           
   2346000   1258075.3      671.63624      1257403.7      0.24549523     218.18199      253.55192      296.36592      295.89018      302.58903      169449.06     -7.8296407      93           
   2347000   1258083.3      680.17874      1257403.1      0.24549523     220.95703      281.54224      297.31284      303.87332      305.3587       169470.17      30.267039      98           
   2348000   1258091.3      682.77043      1257408.6      0.24549523     221.79895      271.10112      300.02623      302.65899      306.95659      169468.26     -25.516095      88           
   2349000   1258085.3      682.56426      1257402.7      0.24549523     221.73197      272.46815      299.82505      302.51744      307.44001      169435.64      40.48014       87           
   2350000   1258084.2      680.98238      1257403.3      0.24549523     221.2181       311.55114      299.55598      300.62958      306.85661      169475.73     -23.173202      95           
   2351000   1258082.8      676.75568      1257406.1      0.24549523     219.84505      310.44769      298.24896      297.63592      306.01494      169465.47      20.454554      98           
   2352000   1258081.8      678.76861      1257403.1      0.24549523     220.49895      300.54514      299.95257      298.00895      304.84284      169450.89     -1.9771145      93           
   2353000   1258093.1      692.17059      1257400.9      0.24549523     224.8526       287.90873      306.69868      304.44067      304.99804      169412.77      2.9826079      90           
   2354000   1258085.1      680.07832      1257405        0.24549523     220.92441      308.55262      299.77392      299.8402       304.45598      169465.84      9.6505322      88           
   2355000   1258079.6      673.61434      1257406        0.24549523     218.82458      322.23148      293.90469      300.11685      306.06591      169445.78     -6.0831644      97           
   2356000   1258078.2      679.28635      1257398.9      0.24549523     220.66714      284.5815       298.23758      300.73184      307.51997      169434.23      20.950662      89           
   2357000   1258087.4      683.14329      1257404.3      0.24549523     221.92007      313.66403      300.22955      301.90794      308.10753      169440.18     -16.908693      97           
   2358000   1258083.1      679.51779      1257403.6      0.24549523     220.74232      316.08605      301.12097      295.8376       308.83218      169443.27      24.437765      94           
   2359000   1258076.7      681.63512      1257395        0.24549523     221.43014      304.02484      300.38377      299.98453      307.81379      169437.14     -7.7443167      99           
   2360000   1258085        678.65641      1257406.3      0.24549523     220.4625       336.52784      299.91533      297.52361      304.18802      169445.13      5.8319         103          
   2361000   1258083.7      677.34555      1257406.3      0.24549523     220.03667      346.92918      296.03433      301.99997      302.49645      169477.97      9.4431131      107          
   2362000   1258086.5      683.80349      1257402.7      0.24549523     222.13454      327.21754      299.33134      305.16714      303.1989       169445.93     -9.5272367      97           
   2363000   1258087.9      679.7679       1257408.1      0.24549523     220.82357      305.47547      296.4598       304.49922      304.54242      169444.13      21.108074      95           
   2364000   1258083.7      682.96007      1257400.8      0.24549523     221.86055      274.69226      302.65252      298.89891      307.06581      169439.19     -19.061957      95           
   2365000   1258080.9      679.90462      1257401        0.24549523     220.86798      288.25992      300.57513      297.57164      308.90454      169480.93      36.155387      94           
   2366000   1258081.6      683.68853      1257397.9      0.24549523     222.09719      312.85057      301.61956      299.78675      310.79689      169440.4      -26.096356      95           
   2367000   1258085.8      677.17219      1257408.7      0.24549523     219.98035      299.30157      298.08117      297.31589      310.75103      169464.41      26.558023      98           
   2368000   1258087.6      682.15411      1257405.4      0.24549523     221.59873      292.54806      299.1376       302.53617      308.49188      169451.89     -11.539187      98           
   2369000   1258083.3      685.24556      1257398.1      0.24549523     222.603        301.07754      304.73211      298.31954      306.58729      169438.13      8.2617173      101          
   2370000   1258094.2      686.9226       1257407.2      0.24549523     223.14778      293.3517       305.20909      300.79014      302.8547       169458.82      7.4289403      97           
   2371000   1258099.2      685.29587      1257413.9      0.24549523     222.61934      282.39333      302.60972      302.79491      302.95039      169450.63     -13.324399      89           
   2372000   1258088        679.46845      1257408.5      0.24549523     220.72629      292.61757      301.53757      296.95473      303.54733      169477.68      30.338033      98           
   2373000   1258089.1      679.41417      1257409.7      0.24549523     220.70866      266.14909      299.50934      299.84507      305.3453       169391.9      -29.386376      94           
   2374000   1258080.9      681.02297      1257399.9      0.24549523     221.23128      249.07616      301.69721      298.28559      307.18794      169499.27      37.738695      93           
   2375000   1258083.2      681.35286      1257401.8      0.24549523     221.33845      288.6321       300.01203      300.58507      307.39482      169411.3      -30.385495      94           
   2376000   1258095        686.55405      1257408.5      0.24549523     223.02806      324.20346      304.04145      300.85288      305.68771      169472.36      31.037795      96           
   2377000   1258086.9      681.53509      1257405.3      0.24549523     221.39764      287.32171      300.99477      300.1566       304.23064      169439.94     -10.848446      77           
   2378000   1258076.1      677.80619      1257398.3      0.24549523     220.18631      295.80115      302.15658      294.2297       302.36411      169448.69      4.6323926      84           
   2379000   1258086.4      678.74751      1257407.7      0.24549523     220.49209      294.45812      299.33859      299.81315      301.64122      169441.71      22.519886      90           
   2380000   1258084        679.44152      1257404.5      0.24549523     220.71755      267.46771      300.81951      299.29467      299.97918      169409.03     -23.720881      90           
   2381000   1258076.9      675.40954      1257401.5      0.24549523     219.40775      284.41315      299.02768      296.63196      300.45121      169482.09      39.72891       93           
   2382000   1258077.6      676.19854      1257401.4      0.24549523     219.66406      314.61902      300.19797      294.96759      302.11132      169454.32     -41.450887      95           
   2383000   1258086.7      683.52982      1257403.2      0.24549523     222.04563      279.37341      305.4953       296.39959      302.65594      169480.64      58.585799      91           
   2384000   1258084.2      681.56767      1257402.6      0.24549523     221.40823      302.18561      302.45663      298.21156      302.50034      169399.75     -50.551685      90           
   2385000   1258075.6      671.1088       1257404.4      0.24549523     218.01065      289.66749      296.16532      295.06916      302.4733       169510.13      44.175819      94           
   2386000   1258082.5      681.00284      1257401.5      0.24549523     221.22474      250.06005      302.78453      298.39214      300.59879      169436.56     -23.127749      92           
   2387000   1258084.7      682.77234      1257401.9      0.24549523     221.79957      278.36635      303.18722      299.88638      299.23655      169418.31      6.3351675      94           
   2388000   1258083        681.69387      1257401.4      0.24549523     221.44922      294.31417      300.66108      302.40496      298.19103      169468.74      25.203181      99           
   2389000   1258086        682.25116      1257403.8      0.24549523     221.63026      298.66026      302.97979      299.50544      298.30217      169478.46     -46.0259        103          
   2390000   1258080.5      679.88157      1257400.6      0.24549523     220.8605       278.21813      301.40771      298.99122      299.2522       169485.99      69.449873      94           
   2391000   1258081.7      677.24279      1257404.4      0.24549523     220.00328      299.47148      302.17129      294.2887       299.28896      169393.78     -65.699743      93           
   2392000   1258082.4      682.84723      1257399.5      0.24549523     221.82389      259.65238      300.04633      304.44425      301.00939      169516.57      71.173722      91           
   2393000   1258075.4      676.88238      1257398.5      0.24549523     219.8862       275.15397      298.48909      299.37743      300.47025      169398.62     -57.172342      92           
   2394000   1258074.3      674.09153      1257400.2      0.24549523     218.97959      328.36736      295.96671      299.62018      297.9391       169478.47      46.514011      106          
   2395000   1258082.9      682.84636      1257400.1      0.24549523     221.82361      330.50975      301.99796      301.74932      296.11398      169432.01     -13.042859      108          
   2396000   1258082        677.05117      1257405        0.24549523     219.94104      340.26309      299.54059      298.09169      296.30875      169456.86     -7.4444263      105          
   2397000   1258080.6      677.44897      1257403.2      0.24549523     220.07026      354.86276      298.74622      299.44463      297.09635      169469.99      39.8306        103          
   2398000   1258080.4      681.47242      1257398.9      0.24549523     221.37729      335.86737      301.32301      300.78424      297.05557      169393.02     -52.05829       100          
   2399000   1258072.7      674.56162      1257398.1      0.24549523     219.1323       275.4956       297.15149      299.24113      298.02167      169507.79      70.241705      85           
   2400000   1258079        680.98424      1257398        0.24549523     221.2187       303.99471      299.94269      302.65268      297.56339      169412.13     -71.831964      82           
   2401000   1258078.3      673.77337      1257404.6      0.24549523     218.87624      330.05933      298.04053      296.49702      296.79918      169494.22      73.48144       80           
   2402000   1258078.9      672.69118      1257406.2      0.24549523     218.52469      300.93628      297.92724      295.83999      296.36215      169400.98     -48.548288      83           
   2403000   1258083.9      681.49146      1257402.4      0.24549523     221.38347      312.60412      301.75312      300.76121      296.27134      169480.28      30.629742      90           
   2404000   1258078.1      673.76336      1257404.3      0.24549523     218.87299      340.1258       299.19578      294.90171      295.59761      169440.23     -0.039069292    89           
   2405000   1258075.7      676.30259      1257399.4      0.24549523     219.69786      333.97476      297.50987      300.48961      296.40902      169416.23     -17.881104      79           
   2406000   1258087        680.97086      1257406        0.24549523     221.21435      325.38062      298.37879      304.88947      296.80637      169480.45      46.180734      80           
   2407000   1258088.1      683.84636      1257404.2      0.24549523     222.14846      338.22064      299.22563      306.92671      296.85604      169377.69     -55.993469      86           
   2408000   1258078.5      670.83418      1257407.7      0.24549523     217.92144      326.63593      294.98024      298.09304      294.58984      169517.64      76.6633        90           
   2409000   1258072.3      672.57507      1257399.7      0.24549523     218.48697      280.48736      296.90108      297.77809      295.34159      169408.86     -77.631089      90           
   2410000   1258074        666.61112      1257407.4      0.24549523     216.54957      288.23991      293.43096      295.75346      294.59644      169476.28      80.305282      89           
   2411000   1258085.8      681.07008      1257404.7      0.24549523     221.24659      272.31761      302.24971      300.48335      294.70792      169413.13     -63.161707      85           
   2412000   1258086.5      685.07451      1257401.4      0.24549523     222.54743      278.76355      302.54193      304.75397      294.99022      169477.75      52.072197      84           
   2413000   1258072.3      673.63292      1257398.7      0.24549523     218.83061      284.1805       296.81575      299.33832      294.82219      169421.75     -28.330748      89           
   2414000   1258081        676.84092      1257404.2      0.24549523     219.87274      293.23603      297.13637      303.12038      293.46376      169462.38      5.7478599      78           
   2415000   1258085.4      681.622        1257403.8      0.24549523     221.42588      318.15624      301.01678      303.01173      292.56623      169466.72      30.568789      83           
   2416000   1258078.8      674.09165      1257404.7      0.24549523     218.97963      336.45976      299.68084      295.83559      291.17975      169406        -46.095266      85           
   2417000   1258085.8      681.0807       1257404.8      0.24549523     221.25004      281.27096      299.71568      304.93916      291.74027      169475.86      66.573456      77           
   2418000   1258077.1      676.42771      1257400.7      0.24549523     219.7385       312.28793      300.15955      298.23776      291.6308       169405.35     -73.277686      79           
   2419000   1258086.6      676.26592      1257410.3      0.24549523     219.68595      309.89925      297.61025      302.14062      290.34738      169479.92      82.06155       87           
   2420000   1258078.6      678.01003      1257400.6      0.24549523     220.25253      322.92069      297.16746      304.80608      290.46244      169409.54     -63.136575      85           
   2421000   1258070.7      670.30932      1257400.4      0.24549523     217.75094      293.63604      294.45906      299.19741      292.72283      169499.32      50.677268      81           
   2422000   1258084.2      681.54472      1257402.7      0.24549523     221.40077      361.11078      299.74179      303.9261       293.50035      169406.14     -24.690178      88           
   2423000   1258083.6      681.37252      1257402.2      0.24549523     221.34483      334.18546      301.59831      300.71558      295.87332      169478.1       9.1662124      79           
   2424000   1258077.2      678.54423      1257398.6      0.24549523     220.42606      331.90443      298.72032      302.08999      294.03014      169467.14      21.051686      92           
   2425000   1258078.2      676.38205      1257401.9      0.24549523     219.72367      298.01339      301.48247      296.1214       292.30357      169419.76     -30.955223      97           
   2426000   1258078.2      676.23         1257402        0.24549523     219.67428      279.78215      300.0693       298.53975      291.62547      169499.16      52.880524      97           
   2427000   1258076.3      671.15946      1257405.1      0.24549523     218.02711      271.8838       298.38748      294.84877      291.94394      169402.21     -51.333334      90           
   2428000   1258073.5      674.4464       1257399        0.24549523     219.09487      273.83157      298.82177      298.36379      291.32166      169501.7       58.945883      86           
   2429000   1258081.3      680.09182      1257401.2      0.24549523     220.9288       326.23297      299.10278      304.13468      291.2246       169398.38     -48.625029      98           
   2430000   1258076.2      678.85851      1257397.3      0.24549523     220.52815      274.37021      303.04819      296.98721      293.06857      169495.96      40.038344      91           
   2431000   1258077.8      675.35516      1257402.5      0.24549523     219.39009      271.90332      298.71461      299.09346      293.52551      169442.65     -17.643835      90           
   2432000   1258081.9      679.52172      1257402.4      0.24549523     220.7436       267.31324      298.94034      303.60146      295.08695      169453.76      8.0322041      107          
   2433000   1258075.5      673.35343      1257402.2      0.24549523     218.73982      281.27316      299.18784      295.49178      294.74709      169495.24      15.026429      104          
   2434000   1258068.2      671.24771      1257397        0.24549523     218.05577      278.50798      296.45119      297.50372      293.00537      169424.02     -16.566992      95           
   2435000   1258086.3      675.63836      1257410.7      0.24549523     219.48208      285.62102      298.33216      300.17638      292.2232       169495.2       28.103009      96           
   2436000   1258084        679.68409      1257404.3      0.24549523     220.79634      298.67773      300.16728      302.0881       292.64193      169419.69     -22.270026      96           
   2437000   1258084.3      679.39257      1257404.9      0.24549523     220.70164      279.37339      299.99566      302.21656      292.85003      169498.25      34.085382      95           
   2438000   1258082.6      677.74695      1257404.9      0.24549523     220.16706      318.93184      300.83575      298.52119      292.28867      169421.49     -19.031968      87           
   2439000   1258075.1      675.84913      1257399.3      0.24549523     219.55055      309.99767      297.58223      300.5951       294.46509      169454.36      32.949435      98           
   2440000   1258081.3      675.9939       1257405.3      0.24549523     219.59758      311.40059      298.18839      299.85727      294.35802      169446.62     -21.852858      102          
   2441000   1258079.2      679.45947      1257399.7      0.24549523     220.72338      280.63024      299.04884      302.84243      296.19511      169449.83      21.967101      106          
   2442000   1258078.1      675.3041       1257402.8      0.24549523     219.3735       282.32442      296.52755      301.39234      296.66206      169477.41     -1.4472026      103          
   2443000   1258079.4      677.67801      1257401.7      0.24549523     220.14467      310.2788       296.96669      303.6461       294.7985       169434.95     -5.6827849      107          
   2444000   1258080.7      676.19634      1257404.6      0.24549523     219.66334      316.71132      296.59876      302.65709      293.23127      169486.71      31.598331      105          
   2445000   1258075.2      672.04063      1257403.2      0.24549523     218.31336      323.09379      296.82528      297.53881      291.55143      169393.64     -29.963304      107          
   2446000   1258079.1      682.91232      1257396.2      0.24549523     221.84504      328.90745      300.70879      305.12344      291.65724      169507.04      39.419033      103          
   2447000   1258082.9      679.36986      1257403.5      0.24549523     220.69427      296.38123      298.4137       304.54368      292.57749      169427.31     -31.114458      97           
   2448000   1258068.2      675.04882      1257393.1      0.24549523     219.29057      322.16886      298.43922      298.72885      292.34858      169451.71      31.064533      91           
   2449000   1258075.2      673.98253      1257401.2      0.24549523     218.94418      278.62064      298.68274      297.25779      293.75655      169451.73     -17.968263      80           
   2450000   1258069.5      672.67327      1257396.8      0.24549523     218.51887      314.10487      296.89838      297.82509      294.15984      169454.44      23.928876      86           
   2451000   1258078.7      675.7813       1257402.9      0.24549523     219.52852      268.67614      297.99041      300.26886      295.28839      169456.79     -6.5947376      86           
   2452000   1258083.3      675.15194      1257408.2      0.24549523     219.32407      291.09532      301.25469      294.44697      294.61388      169449.15      2.3513024      85           
   2453000   1258082.9      683.51481      1257399.4      0.24549523     222.04076      297.87682      303.32444      301.32931      295.2614       169478.95      4.7116239      84           
   2454000   1258088.4      680.81623      1257407.6      0.24549523     221.16412      298.61962      298.26387      305.58325      295.50975      169425.43     -0.89299067     84           
   2455000   1258077.1      674.3993       1257402.7      0.24549523     219.07957      336.87385      297.15975      298.74914      296.02554      169469.08      15.069181      78           
   2456000   1258072.1      670.91031      1257401.2      0.24549523     217.94617      341.2067       294.85199      298.06908      295.29689      169454.5      -9.6759094      81           
   2457000   1258086.1      684.37924      1257401.7      0.24549523     222.32157      363.02812      299.54176      307.17596      295.81255      169442.56      15.52974       78           
   2458000   1258074.2      675.83377      1257398.3      0.24549523     219.54556      309.3834       300.91185      294.74737      297.76023      169458.27     -2.6651902      74           
   2459000   1258073.5      677.28855      1257396.2      0.24549523     220.01815      331.49568      298.16263      300.36131      297.74118      169452.35     -9.0714762      85           
   2460000   1258084.4      679.80767      1257404.6      0.24549523     220.83649      330.43327      298.1027       303.17075      298.84791      169492.86      20.9594        90           
   2461000   1258083.6      676.17383      1257407.5      0.24549523     219.65603      304.51253      296.6849       301.82448      296.77058      169407.22     -21.918588      92           
   2462000   1258079.5      679.75748      1257399.7      0.24549523     220.82019      332.65144      299.65508      301.63003      295.69971      169505.84      35.157103      94           
   2463000   1258079.2      678.30635      1257400.9      0.24549523     220.34878      311.31616      297.28344      303.29937      297.29601      169405.03     -32.040765      96           
   2464000   1258072.9      675.31745      1257397.6      0.24549523     219.37784      293.63705      298.06439      298.93622      296.46878      169494.29      41.760159      97           
   2465000   1258077.4      678.58598      1257398.8      0.24549523     220.43962      289.06297      302.64928      295.94295      297.1885       169395.16     -28.479744      101          
   2466000   1258075        678.26878      1257396.7      0.24549523     220.33658      301.59542      301.2427       296.97036      299.08966      169493.17      26.539229      90           
   2467000   1258078        676.26323      1257401.7      0.24549523     219.68508      320.88718      300.78617      294.29425      301.32405      169449.53     -6.7119313      99           
   2468000   1258083.8      685.94582      1257397.8      0.24549523     222.83048      350.58869      301.66315      304.81978      299.72211      169429.18     -1.6808726      99           
   2469000   1258089.3      683.93642      1257405.4      0.24549523     222.17772      306.84217      299.63456      305.87845      300.64392      169494.41      27.952431      82           
   2470000   1258081.6      681.16954      1257400.4      0.24549523     221.2789       318.011        301.93691      299.13908      299.41675      169403.58     -35.854103      81           
   2471000   1258086.6      683.97308      1257402.6      0.24549523     222.18963      315.72044      302.56289      301.64314      299.78089      169502.23      53.144604      79           
   2472000   1258083.1      678.50342      1257404.6      0.24549523     220.4128       335.37808      299.21482      299.96271      298.91458      169377.12     -50.746627      83           
   2473000   1258076.8      674.27026      1257402.6      0.24549523     219.03765      307.32617      298.05987      296.80069      298.87579      169523.15      57.526837      88           
   2474000   1258091.2      683.95026      1257407.3      0.24549523     222.18222      301.86056      301.17511      303.85909      299.81999      169396.02     -38.425397      94           
   2475000   1258081.7      672.44317      1257409.3      0.24549523     218.44412      291.3335       295.69884      298.24291      299.24356      169439.37      27.97234       95           
   2476000   1258088.1      678.20078      1257409.9      0.24549523     220.31449      300.43773      299.3944       299.69729      299.08728      169474.09      1.2115388      98           
   2477000   1258076.8      677.31036      1257399.5      0.24549523     220.02523      320.03232      297.87528      300.43943      299.67789      169424.55     -19.596646      90           
   2478000   1258074.9      676.69004      1257398.2      0.24549523     219.82372      311.67128      298.73698      298.63928      299.20998      169485         46.377995      82           
   2479000   1258089.7      681.7919       1257407.9      0.24549523     221.48107      305.75329      300.38457      302.4703       299.36627      169387.19     -55.707751      81           
   2480000   1258077.1      678.86827      1257398.2      0.24549523     220.53133      314.98677      296.26313      304.98638      299.39834      169523.8       76.696767      87           
   2481000   1258080        680.12376      1257399.9      0.24549523     220.93917      333.15922      299.54043      301.12135      300.21538      169389.2      -76.719418      78           
   2482000   1258088.4      677.63899      1257410.8      0.24549523     220.13199      312.92896      297.95511      300.65487      300.35726      169490.73      78.492338      84           
   2483000   1258082.2      678.1678       1257404.1      0.24549523     220.30378      291.67202      302.71742      294.46036      300.12382      169446.86     -53.183847      79           
   2484000   1258080.8      674.98414      1257405.8      0.24549523     219.26956      278.25798      297.84005      298.27668      299.33739      169443.35      40.371746      79           
   2485000   1258093.5      682.87636      1257410.6      0.24549523     221.83336      280.08894      302.17869      301.48302      299.06899      169464.77     -0.11781241     78           
   2486000   1258087.2      677.88555      1257409.4      0.24549523     220.21209      311.07763      301.17937      296.90288      297.49295      169391.62     -30.856968      77           
   2487000   1258088.4      682.70493      1257405.7      0.24549523     221.77767      299.1228       300.136        304.37092      298.17485      169504.61      70.307397      79           
   2488000   1258079.2      679.33969      1257399.9      0.24549523     220.68446      332.75003      299.99427      300.16071      297.72128      169406.37     -76.929862      83           
   2489000   1258078.4      675.30682      1257403.1      0.24549523     219.37438      354.11696      300.77365      294.16211      295.85209      169514.79      89.409825      85           
   2490000   1258082.9      676.86878      1257406        0.24549523     219.88179      317.80489      298.00648      300.01264      298.68814      169380.56     -75.626215      84           
   2491000   1258075.7      675.03727      1257400.6      0.24549523     219.28682      325.20351      299.37898      295.32428      299.56193      169493.44      64.350345      86           
   2492000   1258086.7      678.02756      1257408.7      0.24549523     220.25822      309.62611      301.65299      295.61968      300.36946      169414.7      -25.589773      80           
   2493000   1258085.6      681.37947      1257404.2      0.24549523     221.34709      296.9229       299.85706      302.24604      301.69039      169425.26      8.5435315      81           
   2494000   1258077.6      677.0552       1257400.5      0.24549523     219.94235      328.0951       300.18213      296.37897      300.10316      169493.59      28.804425      97           
   2495000   1258084.4      681.76548      1257402.6      0.24549523     221.47249      289.2385       300.10749      302.40842      301.93525      169367.3      -46.340466      97           
   2496000   1258088.6      683.15651      1257405.5      0.24549523     221.92436      292.04509      301.1805       302.36255      302.28594      169541.69      71.242247      93           
   2497000   1258082.7      679.54184      1257403.1      0.24549523     220.75014      319.66244      299.58645      299.85335      302.4748       169367.99     -66.643702      96           
   2498000   1258077.9      679.17553      1257398.7      0.24549523     220.63114      270.69347      300.57965      298.12907      304.28742      169528.5       78.231742      89           
   2499000   1258083.9      680.65667      1257403.2      0.24549523     221.11229      290.53367      302.59401      296.54054      304.75609      169389.72     -68.335588      99           
   2500000   1258084.9      679.74181      1257405.1      0.24549523     220.81509      299.92577      299.35495      300.40604      303.7398       169503.35      60.097514      91           
   2501000   1258077.4      678.66392      1257398.7      0.24549523     220.46494      280.81742      298.87059      300.31937      302.85051      169456.86     -28.766009      91           
   2502000   1258081        684.41419      1257396.6      0.24549523     222.33293      288.47353      299.25606      306.57222      303.45151      169417.3       14.956642      104          
   2503000   1258068.3      673.1371       1257395.1      0.24549523     218.66954      297.04488      293.97865      300.83294      302.17899      169503.94      18.440184      97           
   2504000   1258078.6      678.25062      1257400.3      0.24549523     220.33068      275.74861      298.06298      301.29082      302.44626      169399.3      -30.224261      100          
   2505000   1258082.1      684.87285      1257397.2      0.24549523     222.48192      270.22387      302.60423      302.8023       301.90568      169478.03      52.595251      103          
   2506000   1258084.3      682.7193       1257401.6      0.24549523     221.78234      309.55592      300.7276       302.09946      302.80358      169391.67     -45.393652      105          
   2507000   1258075.6      675.84458      1257399.8      0.24549523     219.54908      262.39481      298.04478      298.585        302.21249      169504.37      52.437731      100          
   2508000   1258069.2      668.20425      1257401        0.24549523     217.0671       248.04056      293.69126      295.78994      302.63979      169413.18     -35.664239      97           
   2509000   1258077.4      675.2633       1257402.2      0.24549523     219.36025      281.35567      295.14216      301.95323      302.12985      169443.8       28.498012      98           
   2510000   1258080.6      675.79781      1257404.8      0.24549523     219.53388      295.5817       298.40462      297.19938      303.21549      169474.82     -8.5130597      101          
   2511000   1258070.3      679.44595      1257390.8      0.24549523     220.71899      325.48059      298.5302       300.47133      305.5081       169410.85     -8.1838609      115          
   2512000   1258083.7      684.45971      1257399.2      0.24549523     222.34771      321.59336      300.42761      303.11556      308.10866      169474.85      30.508897      109          
   2513000   1258091.4      683.61392      1257407.8      0.24549523     222.07296      325.09494      302.41262      298.85537      308.60159      169408.81     -35.469924      113          
   2514000   1258088.8      685.90582      1257402.9      0.24549523     222.81748      296.70218      305.13434      298.20123      308.11222      169524.04      50.032553      106          
   2515000   1258079.7      679.99844      1257399.7      0.24549523     220.89846      289.67444      299.80056      299.22139      307.52061      169395.88     -40.015271      106          
   2516000   1258091.1      684.81539      1257406.2      0.24549523     222.46325      250.85853      301.18399      303.79999      307.16425      169506.61      37.901822      104          
   2517000   1258079.6      681.23031      1257398.3      0.24549523     221.29864      243.79271      301.28503      299.4088       306.99853      169423.4      -20.649714      105          
   2518000   1258082.6      676.25352      1257406.4      0.24549523     219.68192      286.35306      295.74634      301.07603      306.41186      169473.81      14.614312      98           
   2519000   1258086.9      685.45136      1257401.5      0.24549523     222.66985      282.2642       307.01971      295.50039      306.35281      169447.12      6.6252589      103          
   2520000   1258081.4      683.59394      1257397.8      0.24549523     222.06646      279.64123      300.65424      302.8436       306.18802      169445.72     -10.568915      95           
   2521000   1258083.3      680.31676      1257403        0.24549523     221.00187      298.73953      299.01942      300.92971      306.39082      169453.33      31.336323      92           
   2522000   1258080.3      674.8422       1257405.5      0.24549523     219.22345      298.01641      299.31946      293.89039      305.88333      169403.18     -37.858294      91           
   2523000   1258091.9      687.09442      1257404.8      0.24549523     223.2036       284.42954      304.37696      301.61783      305.62017      169537.37      49.276409      92           
   2524000   1258092.1      688.92767      1257403.2      0.24549523     223.79913      313.05985      303.21464      305.30821      305.21472      169409.96     -36.203827      97           
   2525000   1258084.3      681.19856      1257403.1      0.24549523     221.28832      316.77205      298.22385      303.0837       305.84287      169499.59      36.855094      99           
   2526000   1258081.1      678.61583      1257402.5      0.24549523     220.44932      288.72443      298.15274      300.14698      307.01327      169398.96     -15.540873      101          
   2527000   1258070.4      673.83934      1257396.5      0.24549523     218.89767      314.65868      294.90831      299.02051      305.9428       169478.54      16.529703      104          
   2528000   1258078.9      675.95745      1257402.9      0.24549523     219.58574      317.57555      296.65656      298.79501      306.58667      169441.4       4.3439114      94           
   2529000   1258081.7      680.66752      1257401        0.24549523     221.11581      302.51435      300.13725      299.75324      305.90314      169454.36     -9.4167882      89           
   2530000   1258093.1      688.51128      1257404.5      0.24549523     223.66387      293.12597      302.93927      305.42512      305.49235      169461.55      25.700475      89           
   2531000   1258090.8      680.82497      1257410        0.24549523     221.16696      293.48615      299.7059       301.06526      304.84627      169440.45     -23.565151      92           
   2532000   1258077        675.63121      1257401.4      0.24549523     219.47976      295.61462      300.15905      294.03465      304.49372      169453.49      29.528661      85           
   2533000   1258083        677.42503      1257405.6      0.24549523     220.06248      262.85323      296.97767      301.17496      305.11882      169404.85     -21.36701       73           
   2534000   1258078.5      679.57053      1257398.9      0.24549523     220.75945      254.85805      299.41166      300.27374      305.06634      169506.59      22.220178      75           
   2535000   1258079.9      677.7607       1257402.1      0.24549523     220.17153      247.97733      298.55111      299.20173      305.62875      169401.01     -4.5177684      72           
   2536000   1258089.8      686.69929      1257403.1      0.24549523     223.07524      324.66295      301.86799      305.00289      303.23294      169463.06     -1.4914097      76           
   2537000   1258085.7      679.15766      1257406.6      0.24549523     220.62533      284.26884      299.88994      298.93627      304.19024      169418.75      28.320624      75           
   2538000   1258073.3      673.9328       1257399.4      0.24549523     218.92803      317.26515      297.61483      295.94335      302.61433      169473.6      -30.483985      86           
   2539000   1258084.7      678.56078      1257406.1      0.24549523     220.43144      308.80974      302.70883      294.17545      302.50042      169463.51      36.709836      77           
   2540000   1258089.3      686.56349      1257402.8      0.24549523     223.03113      288.79795      302.73739      303.91699      303.23891      169398.8      -35.436932      76           
   2541000   1258078.8      678.8112       1257400        0.24549523     220.51278      291.33438      300.44812      297.93096      302.97502      169507.66      39.130122      84           
   2542000   1258090.3      680.76914      1257409.5      0.24549523     221.14883      272.53854      300.74842      300.03697      303.3965       169407.35     -22.308425      87           
   2543000   1258081.7      681.79755      1257399.9      0.24549523     221.48291      251.44215      300.5321       301.67256      304.02428      169458.42      22.054804      78           
   2544000   1258087.1      685.46902      1257401.6      0.24549523     222.67559      254.61564      304.80806      299.58401      304.30701      169423.87     -2.6370241      74           
   2545000   1258076.4      671.41928      1257405        0.24549523     218.11151      283.45291      296.24334      294.96683      304.11454      169480        -3.0820688      85           
   2546000   1258078.6      672.62632      1257405.9      0.24549523     218.50362      313.791        295.17259      297.98609      302.81409      169444.81      16.440946      86           
   2547000   1258083.1      676.19997      1257406.9      0.24549523     219.66452      338.45296      299.17435      296.27387      301.91607      169416.48     -14.477289      83           
   2548000   1258081.3      678.42622      1257402.9      0.24549523     220.38772      299.80061      300.81477      297.31725      300.70316      169479.79      15.061689      88           
   2549000   1258085.7      683.52278      1257402.1      0.24549523     222.04335      308.5223       302.40121      301.02148      301.61528      169407.39     -9.4920661      84           
   2550000   1258082.6      680.31396      1257402.2      0.24549523     221.00096      305.37566      300.89792      299.22425      301.85163      169457.88      19.595991      80           
   2551000   1258078.3      674.04746      1257404.2      0.24549523     218.96528      296.41078      298.91162      294.64143      301.71512      169436.13     -16.126825      69           
   2552000   1258091.6      687.91913      1257403.7      0.24549523     223.47151      280.74354      302.89773      305.42735      303.43528      169472.72      20.893091      78           
   2553000   1258079.5      672.32475      1257407.2      0.24549523     218.40565      307.71957      295.02586      297.97531      302.58833      169399.84     -4.8007541      76           
   2554000   1258080.8      680.51832      1257400.2      0.24549523     221.06734      311.67313      301.19417      298.79681      302.42634      169490.35      13.523142      77           
   2555000   1258083.6      679.65081      1257403.9      0.24549523     220.78553      308.78765      299.95262      300.18372      300.38899      169458.81     -2.7058995      74           
   2556000   1258078.9      677.10013      1257401.8      0.24549523     219.95694      285.94384      297.07839      301.99732      299.02928      169427.65      6.2380891      72           
   2557000   1258083.6      684.90362      1257398.7      0.24549523     222.49192      288.0611       304.45679      301.00287      297.4213       169468.32      1.7721939      80           
   2558000   1258080.4      680.76175      1257399.6      0.24549523     221.14642      273.91674      301.02435      300.5324       299.85155      169433.77      2.4396494      85           
   2559000   1258081.9      676.9226       1257405        0.24549523     219.89927      237.74064      300.55227      296.66304      301.01534      169487.29      2.9706626      82           
   2560000   1258080.5      679.84823      1257400.7      0.24549523     220.84967      267.84417      303.41478      295.70692      300.56263      169411.67      8.8820579      80           
   2561000   1258089.6      681.61697      1257408        0.24549523     221.42424      262.62495      301.67213      300.22105      301.72959      169504.27     -1.1710695      79           
   2562000   1258090.3      682.257        1257408.1      0.24549523     221.63216      304.89625      303.1685       298.16095      301.88948      169442.23      10.52958       81           
   2563000   1258091.2      683.82501      1257407.4      0.24549523     222.14153      292.13458      301.76613      302.118        302.84151      169437.61      0.54614703     83           
   2564000   1258087.3      680.57671      1257406.7      0.24549523     221.08631      310.45743      297.7114       304.51024      300.91387      169464.52      11.641121      89           
   2565000   1258091.9      680.33706      1257411.6      0.24549523     221.00846      298.94354      301.01014      299.98315      298.78245      169429.09     -4.5676229      87           
   2566000   1258084.4      678.34916      1257406.1      0.24549523     220.36269      309.71703      298.51353      300.93998      299.35206      169443.71      6.3912123      94           
   2567000   1258088.1      679.50498      1257408.6      0.24549523     220.73816      307.63906      299.22134      301.5902       298.54734      169389.07      6.2462774      90           
   2568000   1258076        675.09079      1257400.9      0.24549523     219.3042       299.0446       300.6163       294.16043      298.63952      169488.77     -13.541958      97           
   2569000   1258076.3      673.58827      1257402.7      0.24549523     218.81611      310.58587      298.85074      294.91112      298.37743      169425.72      26.204015      96           
   2570000   1258090        682.62358      1257407.4      0.24549523     221.75124      314.62389      301.22031      301.93738      299.97318      169455.39     -27.352134      91           
   2571000   1258076.5      676.81612      1257399.6      0.24549523     219.86468      286.90467      298.5031       299.20438      300.08762      169467.34      38.741351      86           
   2572000   1258085.1      681.76438      1257403.4      0.24549523     221.47213      271.91622      301.12441      301.48389      300.35681      169474.82     -35.490982      80           
   2573000   1258082.9      675.69036      1257407.2      0.24549523     219.49897      308.44723      298.09414      297.98452      300.82992      169435.74      42.21007       82           
   2574000   1258074.7      674.65972      1257400        0.24549523     219.16417      306.02468      295.38588      300.70268      301.17988      169426.99     -31.854055      93           
   2575000   1258070.7      671.44605      1257399.3      0.24549523     218.12021      301.58006      294.65818      297.67614      302.12482      169474.87      22.5016        94           
   2576000   1258085.6      681.04248      1257404.5      0.24549523     221.23762      342.35641      299.26413      301.97748      301.91043      169415.52     -5.9410318      98           
   2577000   1258090.9      680.28606      1257410.6      0.24549523     220.9919       317.05629      300.90516      298.92287      302.16431      169476.96     -2.6179097      89           
   2578000   1258077.3      674.02909      1257403.3      0.24549523     218.95931      290.00303      299.31071      293.91311      302.51702      169459.22      26.938097      90           
   2579000   1258078.1      680.18367      1257397.9      0.24549523     220.95863      339.68882      299.95874      299.74965      302.62168      169492.69     -37.243663      88           
   2580000   1258088.2      679.25834      1257409        0.24549523     220.65804      315.57389      298.1939       301.27102      304.12686      169427.32      54.710339      80           
   2581000   1258074.9      675.39379      1257399.5      0.24549523     219.40264      292.00513      297.30535      297.87034      305.12262      169463.34     -51.303451      83           
   2582000   1258076.6      677.56832      1257399        0.24549523     220.10903      314.09533      298.36371      298.95721      304.02925      169472.84      52.862818      83           
   2583000   1258079.6      675.69932      1257403.9      0.24549523     219.50189      313.93547      297.0773       298.3892       304.77976      169421.68     -31.194285      87           
   2584000   1258081.4      671.87775      1257409.6      0.24549523     218.26044      288.88341      297.75483      293.24001      304.14167      169458.75      18.633538      90           
   2585000   1258073.6      675.49245      1257398.1      0.24549523     219.43468      277.17527      298.77333      296.51039      303.54718      169440.73      13.37418       109          
   2586000   1258085.1      680.88248      1257404.3      0.24549523     221.18564      310.42095      300.58902      299.97915      303.01419      169476.21     -29.095758      105          
   2587000   1258095.5      686.63329      1257408.9      0.24549523     223.0538       296.83931      305.60397      299.89851      302.23983      169399.61      59.951471      87           
   2588000   1258076.9      676.94929      1257399.9      0.24549523     219.90794      336.08866      297.147        299.93305      303.1912       169477.62     -60.821025      90           
   2589000   1258087.2      673.90772      1257413.3      0.24549523     218.91988      289.01117      298.27063      294.6608       305.04521      169446.49      65.549237      87           
   2590000   1258091.2      684.18467      1257407        0.24549523     222.25837      280.13633      298.85866      306.19347      306.70355      169447.97     -49.230129      83           
   2591000   1258080.6      678.49121      1257402.1      0.24549523     220.40884      288.44125      300.05016      297.38458      306.04181      169465.47      46.184772      95           
   2592000   1258086.8      681.28209      1257405.5      0.24549523     221.31546      284.49769      299.49134      301.74372      305.93811      169435.76     -24.771189      95           
   2593000   1258083.2      678.43848      1257404.8      0.24549523     220.39171      257.5361       299.0261       299.11041      306.49074      169478.54      11.481455      83           
   2594000   1258077.1      677.66687      1257399.5      0.24549523     220.14105      272.61704      301.16761      295.19624      305.03044      169420.89      10.259083      85           
   2595000   1258084.1      682.1268       1257401.9      0.24549523     221.58986      269.81937      300.56399      301.71047      304.87414      169475.31     -8.0080102      92           
   2596000   1258084.7      683.08837      1257401.6      0.24549523     221.90223      270.42317      301.09945      302.01705      304.9917       169419.47      30.426258      101          
   2597000   1258083.2      681.9519       1257401.2      0.24549523     221.53305      256.37874      300.86053      301.05518      305.13076      169444.52     -30.534032      92           
   2598000   1258081.6      678.13788      1257403.5      0.24549523     220.29406      310.75924      300.0575       297.50978      302.65899      169462.19      41.402563      91           
   2599000   1258081.6      678.41526      1257403.2      0.24549523     220.38416      305.84599      301.08852      296.30083      302.90748      169457.29     -34.869224      98           
   2600000   1258080.9      681.29212      1257399.6      0.24549523     221.31871      312.9716       299.85927      301.26976      304.07402      169432.51      34.842937      97           
   2601000   1258084.4      686.77464      1257397.6      0.24549523     223.09972      323.95181      301.16804      305.44271      305.61712      169453.37     -24.311372      105          
   2602000   1258090.9      680.10081      1257410.8      0.24549523     220.93172      305.15578      301.10298      297.72227      305.28211      169485.14      20.221643      103          
   2603000   1258086.9      678.32661      1257408.6      0.24549523     220.35537      269.08749      298.86176      299.43869      305.49618      169420.06     -4.3834488      101          
   2604000   1258078.6      681.10334      1257397.5      0.24549523     221.25739      285.50481      300.99712      299.71359      304.14884      169475.53      1.0340619      107          
   2605000   1258073.9      679.89209      1257394        0.24549523     220.86391      269.96301      301.91477      297.48758      302.70018      169429.91      19.168481      99           
   2606000   1258082.8      675.73039      1257407.1      0.24549523     219.51198      323.75874      297.15425      299.05886      301.19692      169458.54     -16.948063      108          
   2607000   1258078.8      674.84831      1257403.9      0.24549523     219.22544      332.38801      295.86096      299.46066      302.28962      169443.44      27.181302      113          
   2608000   1258076.2      676.92994      1257399.3      0.24549523     219.90166      359.24429      297.64259      298.50709      303.75723      169456.06     -20.491185      108          
   2609000   1258083.9      682.42131      1257401.5      0.24549523     221.68554      347.68382      297.7042       305.25149      304.23563      169450.18      30.719394      108          
   2610000   1258087.2      685.23883      1257402        0.24549523     222.60081      330.12906      301.80721      302.83657      304.35364      169428.09     -23.190596      102          
   2611000   1258088.9      686.10989      1257402.8      0.24549523     222.88378      315.66847      303.24728      302.04801      304.03104      169484.28      24.810604      108          
   2612000   1258088.4      677.58276      1257410.8      0.24549523     220.11372      304.7021       299.59134      297.88898      301.47074      169474.27     -17.532021      102          
   2613000   1258074.6      672.31976      1257402.3      0.24549523     218.40403      309.30083      296.88851      296.04558      299.27611      169451.43      26.640101      103          
   2614000   1258088        681.25907      1257406.7      0.24549523     221.30798      293.0915       298.64536      305.04335      298.07103      169416.22     -16.01541       105          
   2615000   1258091.1      683.86049      1257407.3      0.24549523     222.15305      280.56952      302.25385      302.8649       298.07309      169492.04      10.972742      96           
   2616000   1258083.3      681.00041      1257402.3      0.24549523     221.22395      248.4953       302.58477      298.88948      299.98262      169405.41      2.1869568      98           
   2617000   1258080.2      673.64466      1257406.6      0.24549523     218.83443      269.5939       298.27335      295.05627      303.47034      169482.18     -1.8157807      95           
   2618000   1258084.7      681.48338      1257403.2      0.24549523     221.38085      290.73867      299.50912      301.59302      306.59974      169435.89      20.425241      96           
   2619000   1258079.2      676.01607      1257403.1      0.24549523     219.60478      285.15687      297.51553      297.96138      307.00119      169436.05     -19.837707      99           
   2620000   1258083        677.21724      1257405.8      0.24549523     219.99498      319.17648      299.1514       296.81712      305.60854      169471.04      29.405992      99           
   2621000   1258077.6      673.79063      1257403.8      0.24549523     218.88184      354.94041      297.49623      295.30015      302.46576      169427.28     -21.197882      102          
   2622000   1258079.6      679.29834      1257400.3      0.24549523     220.67103      334.16204      297.93102      302.50787      300.15844      169474.42      34.136445      94           
   2623000   1258081.5      677.98038      1257403.5      0.24549523     220.24289      315.98175      298.61157      300.25196      299.51272      169417.31     -30.914539      92           
   2624000   1258081.9      678.07275      1257403.8      0.24549523     220.2729       305.05064      297.62171      301.77906      300.21068      169474.24      36.447771      98           
   2625000   1258078.5      679.32311      1257399.2      0.24549523     220.67908      308.34612      297.82413      302.65713      301.79242      169430.64     -27.756371      82           
   2626000   1258081.8      681.06351      1257400.7      0.24549523     221.24445      319.12603      299.02678      302.56429      302.55148      169469.16      31.228149      92           
   2627000   1258078.6      679.54335      1257399        0.24549523     220.75063      302.53106      299.73313      299.77842      302.78117      169403.78     -12.012323      86           
   2628000   1258085.2      681.63647      1257403.6      0.24549523     221.43058      318.71464      298.66323      303.98906      301.9341       169466.14      6.4954828      91           
   2629000   1258088.3      685.57961      1257402.7      0.24549523     222.71151      347.89035      301.8074       304.12013      300.58194      169425.52      1.2712602      86           
   2630000   1258085.3      680.2131       1257405.1      0.24549523     220.9682       354.60703      297.80897      303.71672      299.59247      169458.44      1.4158421      81           
   2631000   1258087.9      680.68081      1257407.2      0.24549523     221.12013      315.14451      301.66497      299.17571      298.87115      169448.19      13.329283      87           
   2632000   1258085.4      679.46887      1257406        0.24549523     220.72643      311.02535      299.91533      300.47196      298.82275      169447.79     -8.2205923      79           
   2633000   1258085.2      680.95497      1257404.2      0.24549523     221.20919      297.38347      301.03656      300.614        299.27412      169470.63      14.718946      76           
   2634000   1258084.4      680.72756      1257403.6      0.24549523     221.13532      313.18617      299.77651      301.81677      300.00464      169436.49     -12.214137      78           
   2635000   1258088        681.26906      1257406.7      0.24549523     221.31122      344.14595      304.58188      294.55583      301.24401      169456.29      26.469395      70           
   2636000   1258084.4      680.73625      1257403.7      0.24549523     221.13814      306.8521       303.38186      296.31905      300.63283      169429.01     -23.730013      72           
   2637000   1258090.3      686.93995      1257403.3      0.24549523     223.15342      263.44837      304.3919       302.62933      301.63873      169457.46      31.869058      69           
   2638000   1258076.2      671.6901       1257404.5      0.24549523     218.19949      316.98389      295.58398      296.91431      300.23546      169449.05     -21.602216      73           
   2639000   1258084.8      683.74032      1257401.1      0.24549523     222.11402      314.26955      298.45893      307.62537      299.51054      169447.12      25.362269      77           
   2640000   1258077        677.99857      1257399        0.24549523     220.2488       338.65167      296.68884      303.20758      298.41714      169435.45     -12.337357      76           
   2641000   1258080.1      680.56925      1257399.5      0.24549523     221.08389      393.20543      298.84782      302.369        298.80195      169481.21      7.9357161      73           
   2642000   1258069.1      671.58597      1257397.5      0.24549523     218.16566      371.06414      294.69204      297.83576      298.89402      169455.42      5.4069189      76           
   2643000   1258082.8      679.5504       1257403.3      0.24549523     220.75292      330.96812      301.12373      298.36885      299.19054      169433.07     -5.3074033      73           
   2644000   1258080.1      682.01784      1257398.1      0.24549523     221.55447      335.82826      300.63918      302.33037      298.26957      169467.3       17.42189       72           
   2645000   1258075.4      677.11798      1257398.3      0.24549523     219.96274      329.55013      299.53635      298.06715      298.17162      169451.33     -12.975156      80           
   2646000   1258082.4      678.30737      1257404.1      0.24549523     220.34911      313.80655      297.83578      302.62531      297.09597      169433.42      23.596411      81           
   2647000   1258078        676.0855       1257401.9      0.24549523     219.62734      274.30752      298.47716      299.34786      296.9979       169464.25     -26.229325      90           
   2648000   1258081.8      673.98493      1257407.9      0.24549523     218.94496      259.90559      299.1244       295.71531      298.01942      169438.47      32.61589       82           
   2649000   1258089.2      681.22832      1257408        0.24549523     221.29799      296.04902      301.96427      299.66732      298.83317      169438.49     -19.420146      81           
   2650000   1258080.9      677.10825      1257403.8      0.24549523     219.95958      292.5178       297.23739      301.51619      299.65802      169434.21      18.046563      77           
   2651000   1258076.7      678.7266       1257397.9      0.24549523     220.4853       326.54461      298.57081      301.09877      299.78309      169471.03     -4.8430751      80           
   2652000   1258077.4      677.93829      1257399.5      0.24549523     220.22922      329.69976      298.87753      299.2005       301.1219       169434.65      10.597135      86           
   2653000   1258083.6      681.60256      1257402        0.24549523     221.41956      320.0458       299.55848      303.21894      299.71073      169462.68     -1.1797131      77           
   2654000   1258072.4      671.50315      1257400.9      0.24549523     218.13876      331.76203      297.98981      293.23163      298.95173      169447.5       5.210941       75           
   2655000   1258078.7      679.21936      1257399.5      0.24549523     220.64538      324.47325      301.50319      297.64159      298.47438      169455.5      -0.51698804     77           
   2656000   1258073.1      678.16973      1257395        0.24549523     220.3044       319.9612       300.67687      297.89924      297.46035      169450.42      1.2191747      83           
   2657000   1258079.8      678.86329      1257400.9      0.24549523     220.52971      274.07936      299.3924       301.15936      297.835        169452.81      6.0015789      77           
   2658000   1258079.7      680.33245      1257399.3      0.24549523     221.00697      321.19721      300.75581      300.36181      297.59448      169461.88     -6.9833587      90           
   2659000   1258080        674.24743      1257405.7      0.24549523     219.03024      325.28598      295.29501      301.00802      297.6729       169476.88      19.867497      88           
   2660000   1258077.1      678.77483      1257398.3      0.24549523     220.50097      318.51605      298.77629      301.5391       297.21867      169434.46     -10.918539      91           
   2661000   1258073.9      672.08436      1257401.8      0.24549523     218.32756      316.96086      294.45993      299.77598      297.51657      169466.52      17.100968      88           
   2662000   1258082.4      680.7145       1257401.7      0.24549523     221.13107      332.98994      301.02333      300.4749       296.72296      169444.98     -10.180538      92           
   2663000   1258089.4      683.89048      1257405.5      0.24549523     222.1628       322.27523      300.21203      305.91969      296.23224      169460.97      18.247633      86           
   2664000   1258081.5      679.10479      1257402.4      0.24549523     220.60816      315.18429      301.27581      298.47204      296.42744      169443.61     -8.4379369      88           
   2665000   1258087        680.06696      1257406.9      0.24549523     220.92072      262.92287      299.20073      303.09269      297.83614      169488.51      15.631851      88           
   2666000   1258077.5      675.18373      1257402.3      0.24549523     219.3344       245.20885      298.2726       298.57324      298.37506      169429.08     -12.197452      83           
   2667000   1258087.7      685.13966      1257402.6      0.24549523     222.56859      269.95826      303.35341      302.86278      298.2837       169476.51      18.0795        87           
   2668000   1258077.5      675.35597      1257402.2      0.24549523     219.39035      255.14397      298.29436      298.64803      298.3837       169448.39      3.1292905      87           
   2669000   1258076.9      676.20182      1257400.7      0.24549523     219.66513      328.3322       299.22986      297.65124      296.97542      169463.97      1.0574476      88           
   2670000   1258083.9      682.84433      1257401        0.24549523     221.82295      302.74532      302.26118      301.81551      296.1773       169428.13      11.352231      84           
   2671000   1258081.9      675.57269      1257406.3      0.24549523     219.46075      295.62411      298.2686       299.64927      293.7075       169470.9      -14.217635      85           
   2672000   1258076.2      672.61009      1257403.6      0.24549523     218.49835      279.81598      297.38617      297.6094       293.21891      169417.69      26.584619      80           
   2673000   1258081.5      678.64772      1257402.8      0.24549523     220.45968      307.81092      301.64912      298.5128       292.48691      169443.71     -25.78093       83           
   2674000   1258077.7      680.18002      1257397.5      0.24549523     220.95745      277.04041      302.97541      298.55137      293.43309      169489.03      41.259147      83           
   2675000   1258080.6      672.14491      1257408.5      0.24549523     218.34723      302.06777      298.52049      294.84405      294.18901      169446.93     -31.992018      82           
   2676000   1258086.8      681.88382      1257404.9      0.24549523     221.51093      310.51309      301.60384      301.73452      295.44638      169450.07      34.649572      83           
   2677000   1258079.3      674.76301      1257404.5      0.24549523     219.19773      299.91474      297.76077      298.08577      298.3352       169438.21     -20.35052       83           
   2678000   1258086.4      683.13954      1257403.3      0.24549523     221.91885      322.32199      301.35422      302.55169      298.87873      169494.83      20.108701      91           
   2679000   1258077.9      682.67331      1257395.2      0.24549523     221.7674       299.84895      301.6933       302.05942      297.86914      169414.27     -0.10568529     89           
   2680000   1258083.6      677.17961      1257406.4      0.24549523     219.98276      281.98433      299.86272      298.74654      296.19155      169452.26      0.32305144     86           
   2681000   1258076.8      673.28936      1257403.6      0.24549523     218.71901      262.76764      299.95414      294.96463      292.88475      169442.64      15.808518      85           
   2682000   1258083.7      677.55734      1257406.1      0.24549523     220.10547      279.3389       300.11517      300.51514      290.02817      169456.33     -18.152515      86           
   2683000   1258079.3      673.75085      1257405.5      0.24549523     218.86892      301.36021      299.11341      296.99441      290.40196      169441.41      24.808606      93           
   2684000   1258074.5      673.03278      1257401.4      0.24549523     218.63566      280.45143      296.81692      299.18857      292.62389      169489.41     -21.814786      87           
   2685000   1258073.8      676.21485      1257397.6      0.24549523     219.66936      303.40282      300.43263      296.49391      295.88597      169453.04      26.986035      88           
   2686000   1258079        679.31197      1257399.7      0.24549523     220.67546      313.9864       300.67882      299.21179      297.97986      169417.71     -23.164218      94           
   2687000   1258082.6      678.09479      1257404.5      0.24549523     220.28006      298.08656      297.08496      302.87965      299.67681      169474.84      23.550193      87           
   2688000   1258085.1      686.12969      1257398.9      0.24549523     222.89021      314.12407      301.13742      306.83128      298.24905      169460.16     -7.2518329      82           
   2689000   1258091        681.10132      1257409.9      0.24549523     221.25673      280.27356      302.72596      299.201        296.541        169453.59      7.337579       89           
   2690000   1258081.5      677.17129      1257404.4      0.24549523     219.98006      287.68293      299.56455      299.99053      292.9268       169446.78      6.9687532      97           
   2691000   1258075.4      673.23388      1257402.2      0.24549523     218.70098      332.56885      300.5648       293.73456      290.03057      169461.92     -10.447273      96           
   2692000   1258068.7      673.41963      1257395.2      0.24549523     218.76133      294.55754      299.02781      296.69712      290.58552      169453.25      26.421291      103          
   2693000   1258083.2      679.64456      1257403.5      0.24549523     220.7835       292.45016      299.87879      302.28872      293.57438      169414.02     -29.889504      102          
   2694000   1258089.2      685.71964      1257403.5      0.24549523     222.757        313.76095      303.0864       303.80407      296.74036      169483.2       42.331813      97           
   2695000   1258078.6      679.32143      1257399.3      0.24549523     220.67853      352.6764       299.07716      300.77985      298.62218      169462.21     -32.024878      102          
   2696000   1258076.2      679.85018      1257396.4      0.24549523     220.8503       322.05425      303.57215      294.71654      300.54531      169441.48      29.423148      95           
   2697000   1258085.1      680.78985      1257404.3      0.24549523     221.15555      296.06667      300.09885      301.96774      298.58618      169456.84     -5.6634111      100          
   2698000   1258068        672.39971      1257395.6      0.24549523     218.43         282.92702      297.62248      296.29209      296.04832      169458.47     -4.6261482      99           
   2699000   1258081        676.32459      1257404.6      0.24549523     219.70501      302.9076       301.66685      295.60618      292.71448      169417.07      16.778667      100          
   2700000   1258081.2      673.13747      1257408.1      0.24549523     218.66967      300.7346       297.20004      298.76281      291.52408      169483.53     -15.760539      95           
   2701000   1258081        671.01643      1257410        0.24549523     217.98064      251.839        297.10948      296.79829      292.1941       169458.62      25.441604      88           
   2702000   1258080.7      671.8794       1257408.8      0.24549523     218.26098      281.69962      297.26042      296.90113      293.76752      169502.25     -13.871309      89           
   2703000   1258085        682.26803      1257402.7      0.24549523     221.63574      310.096        302.44719      300.7408       296.05109      169404.98      12.702754      88           
   2704000   1258080.6      678.70907      1257401.9      0.24549523     220.47961      306.711        299.0717       300.98281      297.94668      169492.55     -0.34749668     93           
   2705000   1258074.4      680.80874      1257393.6      0.24549523     221.16169      331.34661      302.95982      297.62597      296.93569      169428.7       6.2150995      97           
   2706000   1258084.6      683.40372      1257401.2      0.24549523     222.00467      316.36675      304.0432       299.74641      295.9187       169473.81      8.7097998      89           
   2707000   1258085.2      681.95405      1257403.2      0.24549523     221.53374      305.01454      303.49128      299.35917      294.08706      169469.84      1.1322215      98           
   2708000   1258084.5      677.50437      1257407        0.24549523     220.08826      300.78672      298.18271      302.46299      292.10361      169444.36      11.311623      102          
   2709000   1258080.7      675.88717      1257404.8      0.24549523     219.56291      333.63142      298.95889      299.24299      290.37755      169479.71     -3.0218447      105          
   2710000   1258071.4      679.54218      1257391.9      0.24549523     220.75024      292.64855      300.82308      301.46591      290.93327      169422.93      2.610537       99           
   2711000   1258076        676.22862      1257399.8      0.24549523     219.67383      273.43476      299.44218      299.15708      293.36717      169477.34      8.4652852      110          
   2712000   1258078.1      672.83416      1257405.3      0.24549523     218.57113      277.43075      298.92677      295.29832      294.81818      169451.9      -2.9450499      107          
   2713000   1258072.8      675.72093      1257397        0.24549523     219.50891      272.26466      297.5477       300.75599      295.93349      169458.73      5.8334141      117          
   2714000   1258080        679.96022      1257400.1      0.24549523     220.88604      278.42777      300.50295      301.39719      295.96175      169468.87     -0.78417069     116          
   2715000   1258071.1      677.53605      1257393.5      0.24549523     220.09855      290.00167      299.42465      300.23485      294.40349      169422.11      6.3455508      114          
   2716000   1258075.1      673.42073      1257401.7      0.24549523     218.76168      306.45105      296.68578      299.57596      292.13595      169467.31     -2.3673198      122          
   2717000   1258082.9      677.99981      1257404.9      0.24549523     220.24921      314.35436      301.03408      298.9987       290.2304       169413.39      10.557939      117          
   2718000   1258076.8      677.93699      1257398.9      0.24549523     220.2288       295.59209      299.79177      300.85535      291.4416       169461.86     -6.5338833      110          
   2719000   1258085.8      683.32184      1257402.4      0.24549523     221.97807      322.72048      301.34704      304.61465      291.43594      169447.39      13.799151      121          
   2720000   1258081        676.76227      1257404.2      0.24549523     219.84719      304.99051      297.15225      302.50602      294.31029      169451.36     -6.2623637      103          
   2721000   1258077        676.28801      1257400.8      0.24549523     219.69312      336.101        299.42596      297.58899      295.79567      169472.97      12.909593      108          
   2722000   1258086.6      680.03137      1257406.6      0.24549523     220.90916      327.02789      299.70297      301.87795      295.79332      169429.32     -1.8158527      109          
   2723000   1258086.3      679.9549       1257406.4      0.24549523     220.88432      290.80456      302.3213       297.96739      297.52828      169475.07      1.3326379      98           
   2724000   1258082.9      681.94977      1257401        0.24549523     221.53235      297.96159      301.21888      302.40561      296.44809      169442.84      5.1315215      97           
   2725000   1258075.1      679.40946      1257395.7      0.24549523     220.70713      278.21419      298.2664       304.29507      295.06257      169479.39      1.4037214      105          
   2726000   1258074.5      672.77721      1257401.8      0.24549523     218.55264      269.81013      296.32097      299.03244      295.97247      169428.54      10.507584      103          
   2727000   1258087.1      680.64797      1257406.5      0.24549523     221.10946      299.83328      301.98196      299.74872      295.37413      169466.93     -1.1655417      103          
   2728000   1258083.4      672.04471      1257411.4      0.24549523     218.31468      304.31576      297.02263      296.31412      296.45572      169435.41      9.0425081      101          
   2729000   1258078.4      680.66612      1257397.7      0.24549523     221.11536      290.06741      300.97191      301.02141      297.43372      169476.17      0.82266558     104          
   2730000   1258080.6      676.5417       1257404        0.24549523     219.77554      290.79661      300.50359      296.63032      296.97131      169449.38      8.1808616      102          
   2731000   1258072        679.13547      1257392.9      0.24549523     220.61813      321.23605      302.34681      296.62684      296.90863      169459.45     -2.4989997      111          
   2732000   1258079.1      677.41577      1257401.7      0.24549523     220.05948      322.09705      298.25591      300.75198      296.44371      169454.98      4.734677       109          
   2733000   1258083.6      679.17969      1257404.4      0.24549523     220.63249      309.93906      300.01056      300.82837      295.22435      169440.96     -3.7257068      113          
   2734000   1258089.2      678.16342      1257411.1      0.24549523     220.30235      270.68831      298.10137      303.10394      295.04992      169469.01      5.1417506      107          
   2735000   1258080.9      681.98916      1257399        0.24549523     221.54515      269.46002      302.0182       301.91914      295.32595      169413.71      4.1918636      110          
   2736000   1258075.9      675.51308      1257400.4      0.24549523     219.44139      317.14628      300.1076       295.89278      295.73116      169486.37      6.5028377      111          
   2737000   1258081.1      676.06662      1257405        0.24549523     219.6212       286.21359      299.25658      298.06953      296.94873      169421.44     -3.3817703      105          
   2738000   1258081.9      679.46453      1257402.4      0.24549523     220.72502      282.05577      300.04075      300.83983      297.98561      169476.86      12.724431      98           
   2739000   1258080.9      678.13218      1257402.8      0.24549523     220.2922       316.25132      301.89702      296.04197      297.40211      169479.58     -10.319302      96           
   2740000   1258079.7      673.9298       1257405.8      0.24549523     218.92706      298.02148      297.41936      297.68566      298.12718      169404.6       17.564739      104          
   2741000   1258078.5      681.06432      1257397.5      0.24549523     221.24471      301.4968       301.39923      300.50304      297.83824      169465.55     -1.8015046      103          
   2742000   1258086.3      679.72188      1257406.6      0.24549523     220.80862      274.31531      300.37313      300.96507      297.20318      169419.51      5.3687973      93           
   2743000   1258083.8      680.71396      1257403.1      0.24549523     221.1309       267.16552      300.59967      302.23926      296.14852      169466.94      8.6331445      96           
   2744000   1258090.9      683.48985      1257407.4      0.24549523     222.03265      309.74797      299.21202      307.18368      295.9758       169405.27     -8.3289818      97           
   2745000   1258074        672.39352      1257401.6      0.24549523     218.42799      270.38985      297.10437      297.29125      296.06047      169473.06      26.560109      93           
   2746000   1258075.1      674.48905      1257400.6      0.24549523     219.10873      280.40367      294.68814      303.61172      294.80694      169437.52     -28.669571      85           
   2747000   1258084.8      678.38208      1257406.4      0.24549523     220.37338      286.9125       298.23721      302.85285      295.12653      169433.93      40.097143      76           
   2748000   1258075.6      673.28844      1257402.3      0.24549523     218.71871      283.30313      292.95168      304.71531      294.72065      169431.82     -29.148833      76           
   2749000   1258074.2      672.56479      1257401.6      0.24549523     218.48363      322.24478      296.15405      299.08554      292.98495      169459.71      31.782295      82           
   2750000   1258080.2      676.60961      1257403.6      0.24549523     219.7976       286.57063      297.85468      301.64912      293.79077      169456.8      -16.904291      88           
   2751000   1258076.1      677.48259      1257398.6      0.24549523     220.08119      266.98116      298.05035      302.32266      295.303        169432.01      7.7718073      94           
   2752000   1258074        676.97277      1257397        0.24549523     219.91557      273.45635      299.33861      299.65602      295.418        169461.92      5.7009773      101          
   2753000   1258074.3      675.33244      1257398.9      0.24549523     219.38271      239.88327      297.03223      301.17746      296.7955       169437.58     -13.837722      90           
   2754000   1258069.9      670.52046      1257399.4      0.24549523     217.81953      271.38929      294.60168      298.85157      295.59225      169472.41      25.689259      90           
   2755000   1258086        681.07295      1257404.9      0.24549523     221.24752      266.69498      299.69711      304.71734      293.50607      169426.37     -26.909115      88           
   2756000   1258088.1      686.65001      1257401.5      0.24549523     223.05923      287.01318      304.27648      304.23144      294.1615       169478.16      38.026433      88           
   2757000   1258082.6      682.32399      1257400.3      0.24549523     221.65392      278.4498       303.55168      300.34783      293.24651      169458.2      -38.915997      96           
   2758000   1258081.7      683.45049      1257398.2      0.24549523     222.01986      294.08107      304.61305      299.8795       293.45945      169446.4       40.712319      95           
   2759000   1258085.5      685.40641      1257400.1      0.24549523     222.65525      290.99829      301.64581      306.72166      293.71948      169459.12     -23.143222      87           
   2760000   1258077.4      674.2839       1257403.1      0.24549523     219.04209      285.59086      298.13496      297.95038      295.3578       169424.78      22.943449      80           
   2761000   1258074.3      672.99484      1257401.3      0.24549523     218.62333      276.81081      298.11966      296.19249      296.46606      169456.96      1.8937241      77           
   2762000   1258076.3      678.18926      1257398.1      0.24549523     220.31075      317.51236      300.57459      298.2636       296.93178      169411.88     -4.9784528      79           
   2763000   1258081.3      681.86967      1257399.4      0.24549523     221.50633      304.11697      300.60156      303.09419      296.32747      169482.7       18.390863      86           
   2764000   1258081        682.86738      1257398.1      0.24549523     221.83044      324.18097      303.5937       300.16443      294.201        169442.81     -18.771696      82           
   2765000   1258077.8      676.10399      1257401.7      0.24549523     219.63335      288.44817      301.36705      295.74793      293.72882      169426.57      33.131265      73           
   2766000   1258076.6      676.49883      1257400.1      0.24549523     219.76161      297.95132      298.36533      300.70037      293.25174      169467.61     -31.161896      84           
   2767000   1258083.5      678.99349      1257404.5      0.24549523     220.572        324.78962      300.26251      300.53952      293.19953      169451.8       38.679243      92           
   2768000   1258079.5      679.58179      1257399.9      0.24549523     220.76311      288.55185      298.78964      303.30455      295.61044      169435.73     -28.757844      104          
   2769000   1258096.1      687.18505      1257408.9      0.24549523     223.23304      274.40624      303.91394      305.07504      296.20146      169433.1       30.843448      91           
   2770000   1258086.4      682.1275       1257404.2      0.24549523     221.59009      266.37248      299.76083      305.5268       295.05808      169465.44     -10.236566      92           
   2771000   1258077.7      673.6469       1257404.1      0.24549523     218.83516      220.93368      295.868        301.04875      297.03251      169450.55      12.367573      89           
   2772000   1258071.2      676.50857      1257394.6      0.24549523     219.76477      275.28214      299.47203      299.44731      293.20459      169441.39      1.6672588      103          
   2773000   1258077.9      680.51701      1257397.4      0.24549523     221.06692      260.2612       298.91983      305.14193      294.27031      169481.7      -0.042502076    98           
   2774000   1258072.3      674.94559      1257397.3      0.24549523     219.25704      277.34354      300.1031       296.41726      293.45041      169448         15.813129      96           
   2775000   1258075.8      676.39408      1257399.4      0.24549523     219.72758      257.84727      303.34083      293.63746      293.21366      169428.49     -19.960647      90           
   2776000   1258082        682.11839      1257399.9      0.24549523     221.58713      292.39503      300.72624      304.23682      292.9937       169478.27      29.05422       94           
   2777000   1258081.3      682.15242      1257399.1      0.24549523     221.59818      269.49243      303.62803      300.21369      293.36761      169459.22     -13.523286      94           
   2778000   1258091.9      679.4178       1257412.5      0.24549523     220.70984      263.66297      302.16486      298.89207      293.93441      169409.84      16.025032      92           
   2779000   1258086.4      682.6879       1257403.7      0.24549523     221.77214      273.3386       304.23139      299.46986      294.96357      169444.49     -0.046293182    106          
   2780000   1258085        681.66703      1257403.3      0.24549523     221.4405       290.76193      304.68817      297.10059      295.4499       169443.98      4.2564678      104          
   2781000   1258079.5      679.05213      1257400.5      0.24549523     220.59105      299.92764      299.63479      301.21077      295.92446      169474.57      9.0323764      104          
   2782000   1258080.2      675.17753      1257405        0.24549523     219.33238      280.99565      299.82163      296.5081       295.67527      169423.19     -12.762373      90           
   2783000   1258072.4      675.50794      1257396.8      0.24549523     219.43972      301.52612      298.98034      297.95709      295.41797      169467.02      24.625117      91           
   2784000   1258080.3      676.53656      1257403.8      0.24549523     219.77387      289.75627      302.66173      293.94931      295.0812       169462.24     -19.996487      99           
   2785000   1258086.2      681.60494      1257404.6      0.24549523     221.42034      298.66941      301.79067      301.34998      295.09035      169432.15      25.631643      101          
   2786000   1258090        686.89076      1257403.1      0.24549523     223.13744      291.1617       302.28591      307.17653      295.27185      169472.14     -21.865883      101          
   2787000   1258083.4      680.62332      1257402.8      0.24549523     221.10146      296.79024      301.87338      300.00575      295.23555      169451.57      27.964176      91           
   2788000   1258076.7      674.21567      1257402.4      0.24549523     219.01992      285.89053      300.35776      294.10687      296.90833      169441.95     -12.223148      82           
   2789000   1258077        678.45858      1257398.5      0.24549523     220.39823      265.54881      299.48425      300.16138      299.62709      169411.27      15.573458      80           
   2790000   1258077.7      676.30106      1257401.4      0.24549523     219.69736      300.79167      298.56466      298.30372      300.10536      169481.48     -7.1771599      81           
   2791000   1258079.8      680.73636      1257399        0.24549523     221.13818      295.51986      301.83442      299.04943      299.63035      169483.79      10.046749      79           
   2792000   1258080.3      676.47365      1257403.9      0.24549523     219.75343      295.6698       301.39631      294.55632      299.312        169418.59      4.5773915      90           
   2793000   1258088        680.53725      1257407.5      0.24549523     221.0735       326.97698      302.21058      298.35649      297.65113      169469.93     -1.2570017      84           
   2794000   1258085.7      677.86515      1257407.8      0.24549523     220.20546      286.52885      297.67881      302.87415      295.89006      169419.72      7.4696557      72           
   2795000   1258084.7      678.45811      1257406.3      0.24549523     220.39808      266.13393      302.55413      296.30255      296.30489      169461.22     -1.9069684      69           
   2796000   1258080        677.69504      1257402.3      0.24549523     220.1502       319.85316      300.80395      297.26634      297.04345      169432.31      15.186838      75           
   2797000   1258084        677.89563      1257406.2      0.24549523     220.21536      288.49199      304.29952      291.91171      299.59451      169470.27     -13.779752      76           
   2798000   1258084        684.59728      1257399.4      0.24549523     222.3924       305.672        301.72226      303.63788      300.3876       169446.63      17.316955      78           
   2799000   1258078.1      676.94705      1257401.2      0.24549523     219.90721      278.26596      300.87029      295.66217      301.5699       169444.25     -6.7447926      86           
   2800000   1258085.2      682.06574      1257403.1      0.24549523     221.57003      269.66635      302.1355       300.26818      300.89118      169455.95      8.8324234      90           
   2801000   1258074.6      677.48244      1257397.1      0.24549523     220.08114      285.433        296.98447      302.38734      299.92805      169456.46      2.856011       92           
   2802000   1258083.4      686.11877      1257397.2      0.24549523     222.88666      267.90758      304.66643      302.10859      298.80966      169445.02      1.3334576      107          
   2803000   1258082.5      681.48257      1257401.1      0.24549523     221.38058      267.86604      302.14408      300.16494      299.04435      169436.23      5.8698371      112          
   2804000   1258078.6      677.19315      1257401.4      0.24549523     219.98716      307.33137      297.9723       300.77183      297.59157      169481.63     -1.3981331      128          
   2805000   1258084.7      682.37261      1257402.3      0.24549523     221.66971      284.52533      302.21416      301.20582      297.81049      169415.35      15.352017      122          
   2806000   1258074.9      673.33346      1257401.6      0.24549523     218.73333      296.45587      296.19179      298.77567      298.35674      169461.78     -12.356309      119          
   2807000   1258079.7      680.56503      1257399.1      0.24549523     221.08252      303.1243       300.59599      300.4758       300.27668      169418.62      24.593904      116          
   2808000   1258072        674.77038      1257397.3      0.24549523     219.20012      293.06181      300.85057      292.92725      300.91473      169491.2      -21.801353      118          
   2809000   1258070.6      672.85514      1257397.7      0.24549523     218.57795      286.62327      297.67191      295.79058      299.84249      169441.04      30.311589      115          
   2810000   1258080.2      675.87829      1257404.3      0.24549523     219.56003      280.23652      299.40823      297.16508      298.93927      169458.38     -23.26394       101          
   2811000   1258082.5      684.1219       1257398.4      0.24549523     222.23797      293.32555      304.20618      299.8642       298.86902      169499.69      24.362502      99           
   2812000   1258077.9      682.42684      1257395.5      0.24549523     221.68733      270.18018      302.03039      301.69112      298.01734      169419.42     -9.2398888      104          
   2813000   1258084.1      675.32006      1257408.8      0.24549523     219.37868      264.31718      298.33359      298.8597       296.92921      169474.2       10.611315      97           
   2814000   1258082        677.9009       1257404.1      0.24549523     220.21707      292.45563      300.45843      298.70785      295.79915      169414.72      7.2061157      97           
   2815000   1258084.6      677.24774      1257407.3      0.24549523     220.00489      295.85752      297.74804      302.29636      294.26342      169506.56     -4.4834115      87           
   2816000   1258083.6      684.03924      1257399.6      0.24549523     222.21112      301.54191      305.6276       298.76616      294.20235      169426.53      23.28225       97           
   2817000   1258078.6      677.41682      1257401.2      0.24549523     220.05982      303.13395      299.59297      299.37391      295.37036      169439.57     -26.632145      90           
   2818000   1258090.4      686.21817      1257404.2      0.24549523     222.91895      305.3969       302.28071      305.64527      297.08588      169493.95      36.050095      105          
   2819000   1258076.3      674.03427      1257402.3      0.24549523     218.96099      274.41257      300.30633      294.05738      297.90316      169404.34     -37.094318      88           
   2820000   1258090.6      682.16931      1257408.4      0.24549523     221.60367      269.14246      305.13932      296.32381      299.12902      169484.95      39.59225       84           
   2821000   1258072.3      672.60861      1257399.7      0.24549523     218.49786      268.69317      297.97927      295.4374       298.7644       169454.06     -31.929735      83           
   2822000   1258089.5      681.42397      1257408        0.24549523     221.36155      250.21084      300.78901      302.19978      298.93725      169493.97      32.041432      77           
   2823000   1258083.4      682.46047      1257401        0.24549523     221.69826      256.07579      301.27588      302.62874      299.18211      169393.28     -11.76813       86           
   2824000   1258080.6      678.78142      1257401.8      0.24549523     220.50311      269.29686      301.23179      297.97358      299.43093      169485.92      3.1298392      88           
   2825000   1258091.7      682.61659      1257409.1      0.24549523     221.74897      275.44258      302.65627      300.146        300.55606      169459.62      14.517703      93           
   2826000   1258082.5      678.77614      1257403.7      0.24549523     220.5014       275.83935      301.09016      298.01914      299.88132      169445.74     -12.460674      101          
   2827000   1258071.9      674.0047       1257397.9      0.24549523     218.95139      268.44993      298.35616      296.57638      299.40536      169444.75      28.522388      99           
   2828000   1258082.8      680.32597      1257402.5      0.24549523     221.00486      284.45177      301.69516      299.3193       298.15764      169460.24     -25.780427      94           
   2829000   1258079.8      679.74256      1257400.1      0.24549523     220.81534      251.2393       301.35227      299.91808      297.15865      169462.09      43.901269      100          
   2830000   1258086.5      681.90002      1257404.6      0.24549523     221.51619      278.39842      305.57741      296.36055      295.009        169437.94     -43.438249      101          
   2831000   1258079.6      677.33156      1257402.3      0.24549523     220.03212      279.54265      302.9764       294.68879      294.83098      169480.63      48.07914       103          
   2832000   1258084.1      677.44331      1257406.6      0.24549523     220.06843      280.74209      300.26304      298.67537      295.39709      169418.65     -37.22775       91           
   2833000   1258086.2      684.14429      1257402.1      0.24549523     222.24525      280.47239      302.86428      302.6006       297.0148       169478.77      20.746268      87           
   2834000   1258080        680.65289      1257399.3      0.24549523     221.11106      260.67134      300.28394      301.85302      299.17234      169428.17     -1.6571375      86           
   2835000   1258088.9      684.12166      1257404.8      0.24549523     222.2379       246.61636      304.19819      300.32149      299.47582      169467.03     -10.40018       83           
   2836000   1258082.3      683.40114      1257398.9      0.24549523     222.00383      256.33331      303.14451      301.1183       298.47443      169474.66      30.173376      74           
   2837000   1258082.6      682.80326      1257399.8      0.24549523     221.80961      294.67484      302.29204      301.24913      298.3744       169444.28     -29.418131      77           
   2838000   1258087.9      682.32729      1257405.5      0.24549523     221.65499      242.26526      301.9902       301.57357      299.03485      169451.74      41.690773      77           
   2839000   1258081        675.41497      1257405.6      0.24549523     219.40951      278.24619      299.98599      296.13121      297.2669       169437.62     -40.268723      78           
   2840000   1258076.1      681.0247       1257395.1      0.24549523     221.23184      274.35528      299.96072      303.13995      297.12151      169466.28      50.087856      74           
   2841000   1258091        679.56785      1257411.4      0.24549523     220.75858      277.74053      299.59448      301.93195      296.74075      169397.02     -33.068201      81           
   2842000   1258083.6      677.86508      1257405.7      0.24549523     220.20544      292.65205      298.199        301.76403      296.87172      169492.9       24.655809      81           
   2843000   1258087.4      688.24454      1257399.2      0.24549523     223.57722      332.05735      306.07067      302.18462      297.01718      169449.44     -1.7763528      93           
   2844000   1258083.6      681.78739      1257401.8      0.24549523     221.4796       318.37416      302.41837      299.97622      296.56969      169469.41      0.84644812     86           
   2845000   1258077.4      674.12249      1257403.3      0.24549523     218.98965      310.30322      295.90782      300.30388      297.20007      169459.36      20.671221      77           
   2846000   1258080.6      678.15697      1257402.5      0.24549523     220.30026      309.41104      297.65277      302.61718      297.2767       169465.93     -24.978654      84           
   2847000   1258083.9      678.60379      1257405.3      0.24549523     220.44541      305.13145      300.26504      299.28163      297.30327      169503.19      47.314184      88           
   2848000   1258083.7      680.10937      1257403.6      0.24549523     220.9345       324.49188      302.77047      297.31989      296.34954      169418.46     -47.147869      95           
   2849000   1258085.1      683.56264      1257401.5      0.24549523     222.0563       320.59005      302.09002      302.43439      297.16911      169481.93      50.294195      90           
   2850000   1258084.1      680.72939      1257403.4      0.24549523     221.13591      351.4839       299.899        302.20351      295.44356      169461.76     -34.339688      99           
   2851000   1258075.2      678.68626      1257396.5      0.24549523     220.4722       302.10131      297.90616      302.85722      297.53565      169459.13      34.482439      101          
   2852000   1258079.6      671.95798      1257407.7      0.24549523     218.28651      257.64204      296.92477      296.61324      297.98808      169430.29     -12.926702      94           
   2853000   1258078.2      676.88259      1257401.3      0.24549523     219.88627      310.75771      298.25381      300.36827      296.68599      169495.7       10.724142      92           
   2854000   1258085.4      680.83215      1257404.6      0.24549523     221.16929      292.87175      300.71487      301.79546      296.25386      169440.3       14.031169      89           
   2855000   1258078.8      676.377        1257402.4      0.24549523     219.72203      303.93559      296.38688      302.32385      297.55604      169436.29     -24.591716      90           
   2856000   1258090.9      685.64722      1257405.3      0.24549523     222.73348      287.9355       305.3937       300.34372      297.69175      169476.73      41.735803      90           
   2857000   1258092.6      684.80742      1257407.8      0.24549523     222.46067      284.62956      304.32812      301.09198      297.10876      169449.15     -36.699001      78           
   2858000   1258078        675.56273      1257402.4      0.24549523     219.45752      304.42959      298.74248      298.22877      295.92567      169448.71      44.252087      84           
   2859000   1258074        678.04637      1257396        0.24549523     220.26433      321.31164      296.4141       304.75243      295.13345      169430.93     -40.116887      86           
   2860000   1258074.8      673.31016      1257401.5      0.24549523     218.72576      302.98701      294.34822      302.36855      294.80431      169485.09      40.051796      88           
   2861000   1258079.4      679.71997      1257399.7      0.24549523     220.808        271.09534      300.1033       302.54424      292.83487      169397.8      -22.961608      78           
   2862000   1258084.9      679.88687      1257405        0.24549523     220.86222      325.88459      300.67737      301.31151      292.49168      169457.5       22.627035      82           
   2863000   1258087.2      683.04452      1257404.1      0.24549523     221.88799      297.19978      302.49716      302.65567      292.85644      169453.62     -6.8220378      84           
   2864000   1258077        681.23331      1257395.8      0.24549523     221.29961      275.82071      301.09824      302.3081       294.86827      169440.93      1.7920036      85           
   2865000   1258081.8      680.22982      1257401.6      0.24549523     220.97363      287.73926      298.96365      303.51709      297.0377       169451.4       18.342439      90           
   2866000   1258081.9      676.17282      1257405.7      0.24549523     219.6557       274.21306      298.64717      298.97645      297.66707      169415.38     -23.536194      86           
   2867000   1258074.9      673.46662      1257401.5      0.24549523     218.77659      250.12882      298.30713      296.49762      297.7787       169479.99      38.954428      82           
   2868000   1258088.7      682.56126      1257406.2      0.24549523     221.731        276.71822      299.23145      306.40263      296.16588      169398.33     -40.733445      89           
   2869000   1258080        678.1998       1257401.8      0.24549523     220.31417      291.87003      301.03107      298.57425      294.45889      169488.21      57.570248      86           
   2870000   1258078.9      677.04396      1257401.9      0.24549523     219.9387       310.82742      298.47481      301.0476       293.22048      169420.12     -51.069002      95           
   2871000   1258084.8      675.8874       1257408.9      0.24549523     219.56298      300.01436      300.22901      297.41001      292.2632       169478.71      56.914713      89           
   2872000   1258090.4      683.72568      1257406.6      0.24549523     222.10926      318.06712      304.15964      300.69168      293.02282      169417.47     -38.040521      87           
   2873000   1258084.9      675.16547      1257409.8      0.24549523     219.32847      327.2352       297.66091      299.67734      293.16063      169468.41      28.76863       100          
   2874000   1258084.9      682.25789      1257402.7      0.24549523     221.63245      334.46609      304.53237      297.46787      295.01313      169475.08      4.6271246      97           
   2875000   1258083.8      678.60503      1257405.2      0.24549523     220.44581      338.29946      300.02625      299.25649      296.55798      169430.69     -14.922548      107          
   2876000   1258082.6      678.6926       1257403.9      0.24549523     220.47426      303.01712      298.48642      302.00853      297.61627      169459.85      37.562896      92           
   2877000   1258080        675.22276      1257404.8      0.24549523     219.34707      313.31495      297.31774      299.51732      296.94713      169434.93     -36.647352      86           
   2878000   1258080.2      671.79047      1257408.4      0.24549523     218.23209      305.15494      295.54009      298.69176      294.7549       169471.71      46.306801      87           
   2879000   1258072.1      668.65841      1257403.4      0.24549523     217.21464      306.56493      294.13677      297.51371      292.6005       169400.81     -36.209733      84           
   2880000   1258070.8      671.72219      1257399        0.24549523     218.20991      282.02528      296.31131      298.58223      291.68846      169503.33      43.384062      80           
   2881000   1258087        687.5901       1257399.5      0.24549523     223.36462      339.28954      304.05655      305.56174      291.81327      169433.19     -34.45556       96           
   2882000   1258080.1      678.49814      1257401.6      0.24549523     220.41109      299.80065      299.52098      301.38028      293.39998      169460.48      30.054983      94           
   2883000   1258079.2      676.23861      1257403        0.24549523     219.67707      276.07472      297.82593      301.39772      293.78182      169467.35     -11.637624      93           
   2884000   1258077.9      676.32337      1257401.6      0.24549523     219.70461      289.46858      298.53632      300.0241       294.63321      169450.33      6.8937409      109          
   2885000   1258073.6      675.58763      1257398        0.24549523     219.46561      263.13168      297.87772      300.74176      293.92218      169453.01      15.006952      94           
   2886000   1258083        682.75938      1257400.3      0.24549523     221.79536      272.30372      301.90075      303.19543      294.33406      169435.59     -22.136458      93           
   2887000   1258089.8      683.79812      1257406        0.24549523     222.13279      276.76839      303.24709      302.44934      294.18479      169493.04      37.525621      94           
   2888000   1258077.9      680.72386      1257397.2      0.24549523     221.13411      300.54897      302.53707      299.31571      294.36155      169410.91     -33.185975      92           
   2889000   1258087.3      677.61159      1257409.6      0.24549523     220.12309      326.46695      299.32442      300.16795      293.5673       169469.34      48.145418      90           
   2890000   1258080.1      674.91501      1257405.2      0.24549523     219.2471       349.14179      298.86746      297.54111      292.74815      169444.41     -46.007395      87           
   2891000   1258081.2      678.67235      1257402.5      0.24549523     220.46768      344.58961      300.64073      299.21488      293.82819      169487.6       50.481564      84           
   2892000   1258085.3      681.23623      1257404.1      0.24549523     221.30056      331.63648      301.73403      300.92557      294.22884      169412.76     -29.377531      88           
   2893000   1258085.5      682.14042      1257403.4      0.24549523     221.59429      340.79589      302.36855      300.61291      294.87531      169470.49      28.356999      85           
   2894000   1258079.6      677.33695      1257402.3      0.24549523     220.03387      361.15785      300.35698      297.83662      293.53949      169468.65     -7.1141236      86           
   2895000   1258081.7      676.70437      1257405        0.24549523     219.82838      308.74649      298.80381      300.10803      293.5484       169441.42     -6.6384144      83           
   2896000   1258066.8      674.72075      1257392        0.24549523     219.184        318.20772      300.09301      295.51507      293.87415      169461.38      37.006057      84           
   2897000   1258086        683.57869      1257402.4      0.24549523     222.06151      283.20584      304.61307      299.97509      294.28438      169442.52     -49.37904       92           
   2898000   1258085.7      680.07337      1257405.6      0.24549523     220.9228       294.15171      302.10423      299.17453      294.67994      169475.76      63.920904      91           
   2899000   1258072.4      677.93758      1257394.4      0.24549523     220.22899      310.39373      299.06845      300.70027      295.3633       169397.86     -49.823398      83           
   2900000   1258081.9      674.32423      1257407.6      0.24549523     219.05519      316.15491      297.33816      298.56455      296.18646      169515.33      41.45675       86           
   2901000   1258073.8      672.13841      1257401.7      0.24549523     218.34512      300.09966      296.8574       297.18511      294.81566      169406.7      -16.236373      94           
   2902000   1258086.2      680.36881      1257405.8      0.24549523     221.01878      314.08732      299.57504      303.04559      294.70933      169434.95      3.9594495      84           
   2903000   1258083.9      679.99528      1257403.9      0.24549523     220.89743      281.29267      301.59863      299.94842      294.72976      169488.86      15.023429      83           
   2904000   1258079.2      684.15823      1257395.1      0.24549523     222.24978      261.44372      303.25673      302.75648      295.23868      169455.95     -24.157389      86           
   2905000   1258083.7      680.95879      1257402.8      0.24549523     221.21043      264.74039      301.82582      300.88781      295.39596      169420.31      36.462008      86           
   2906000   1258081.9      674.86412      1257407.1      0.24549523     219.23057      271.85702      298.28778      298.64602      295.40415      169457.73     -33.873499      94           
   2907000   1258082.7      681.97858      1257400.7      0.24549523     221.54171      281.7126       302.18203      301.2818       295.83536      169490.19      42.370158      96           
   2908000   1258084.6      681.99449      1257402.6      0.24549523     221.54688      311.09598      299.0492       305.71692      295.32976      169414.14     -27.786914      91           
   2909000   1258078.5      682.3478       1257396.1      0.24549523     221.66165      278.36413      301.90095      302.10078      296.16091      169481.34      28.914762      87           
   2910000   1258076.6      675.33553      1257401.3      0.24549523     219.38371      309.42087      299.09872      297.57441      294.80389      169446.52     -10.390445      97           
   2911000   1258079.7      673.28199      1257406.4      0.24549523     218.71661      282.50561      298.11222      296.66086      295.99595      169456.38      1.0605261      99           
   2912000   1258085.3      686.31813      1257399        0.24549523     222.95142      260.33409      305.42096      301.60423      297.415        169423.59      9.4029756      95           
   2913000   1258079.6      675.71474      1257403.9      0.24549523     219.5069       321.14858      297.44517      300.14818      295.71677      169513.65     -8.8264746      94           
   2914000   1258077.9      672.78158      1257405.2      0.24549523     218.55405      317.32297      298.91011      294.55977      295.17318      169423.55      14.463543      88           
   2915000   1258079.7      673.50721      1257406.2      0.24549523     218.78978      337.79961      298.97249      295.1937       294.57436      169457.75     -10.443359      94           
   2916000   1258082        678.51119      1257403.4      0.24549523     220.41533      313.89028      300.54409      299.11857      295.29478      169456.23      17.93082       103          
   2917000   1258068.2      674.28253      1257393.9      0.24549523     219.04164      303.18088      296.3856       300.76872      293.97123      169452.02     -3.4856403      102          
   2918000   1258072.6      673.5706       1257399        0.24549523     218.81037      316.91812      297.60733      298.13857      293.19615      169433.67      1.7008723      94           
   2919000   1258078        679.91168      1257398.1      0.24549523     220.87028      317.51472      302.30053      298.83781      292.72991      169434.94      12.968266      90           
   2920000   1258093.7      684.96488      1257408.7      0.24549523     222.51182      286.26619      301.24568      307.06453      292.91414      169493.35     -11.514588      91           
   2921000   1258082.9      680.83989      1257402.1      0.24549523     221.17181      251.89487      299.91259      304.24025      293.99905      169416.54      17.030213      100          
   2922000   1258081.1      681.1196       1257400        0.24549523     221.26267      286.11023      302.14441      300.72633      293.75584      169472.16     -10.459343      102          
   2923000   1258077.6      679.04699      1257398.5      0.24549523     220.58938      311.80933      299.37936      301.94139      293.77834      169441.65      7.4577118      111          
   2924000   1258075        670.86589      1257404.2      0.24549523     217.93174      330.73848      297.71506      293.84144      294.49519      169485.15      11.02188       115          
   2925000   1258072        679.92338      1257392.1      0.24549523     220.87408      325.80977      299.473        302.31862      294.72935      169427.03     -12.370294      116          
   2926000   1258081.8      674.41217      1257407.4      0.24549523     219.08375      327.82287      298.74614      296.89164      293.7613       169446.56      22.699038      116          
   2927000   1258082.2      679.9758       1257402.2      0.24549523     220.89111      277.88406      300.91041      301.16118      294.55571      169445.44     -17.839378      108          
   2928000   1258082.6      679.18308      1257403.4      0.24549523     220.63359      297.00657      300.11699      301.13325      294.28419      169431.32      20.371026      114          
   2929000   1258084        682.79584      1257401.2      0.24549523     221.8072       310.53789      299.29573      306.81013      293.32709      169429.17     -13.98129       114          
   2930000   1258078.8      681.42731      1257397.4      0.24549523     221.36263      292.78947      302.40761      300.66537      293.70594      169448.97      12.327473      113          
   2931000   1258081.8      679.33485      1257402.4      0.24549523     220.68289      330.50572      300.06259      301.39161      291.87899      169449.32      10.736681      119          
   2932000   1258075.9      677.81598      1257398.1      0.24549523     220.18949      298.02057      297.52159      304.10653      291.30577      169427.63     -19.109144      118          
   2933000   1258075.2      675.70673      1257399.5      0.24549523     219.50429      318.87211      298.55986      299.64584      291.10666      169476.53      39.475757      120          
   2934000   1258075.8      678.92794      1257396.8      0.24549523     220.55071      304.50477      300.65901      300.55797      291.54874      169441.22     -39.149374      124          
   2935000   1258077.6      673.61234      1257403.9      0.24549523     218.82393      285.6077       299.56435      296.42835      290.04839      169493.01      45.311797      123          
   2936000   1258080.3      678.5841       1257401.8      0.24549523     220.43901      270.2477       300.65949      301.03156      290.76563      169402.96     -29.68077       131          
   2937000   1258083.4      681.22903      1257402.2      0.24549523     221.29822      276.60869      300.56684      304.4235       290.29538      169458.02      33.110206      121          
   2938000   1258079.8      678.18908      1257401.6      0.24549523     220.31069      291.58077      303.39316      296.5691       288.60206      169481.68     -14.561889      117          
   2939000   1258081.6      682.23277      1257399.3      0.24549523     221.62429      271.83207      303.91573      300.874        289.47057      169441.4       10.192271      113          
   2940000   1258078.1      677.36543      1257400.7      0.24549523     220.04312      313.7221       302.7321       295.89262      289.6009       169447.59      5.898301       112          
   2941000   1258081.2      679.89066      1257401.3      0.24549523     220.86345      308.2829       297.90874      305.61062      292.50434      169441.26     -15.912247      102          
   2942000   1258083.6      683.95334      1257399.7      0.24549523     222.18322      297.08947      304.4331       300.82514      292.71656      169508.38      38.304766      111          
   2943000   1258083        685.28471      1257397.7      0.24549523     222.61571      323.34147      301.73911      306.32905      291.88631      169397.6      -45.103171      117          
   2944000   1258078.9      676.38985      1257402.5      0.24549523     219.72621      302.0492       299.37567      299.72036      290.44549      169483.46      60.577151      114          
   2945000   1258079        675.49243      1257403.5      0.24549523     219.43468      288.49429      301.37586      295.85711      290.42725      169446.12     -54.481582      112          
   2946000   1258086.5      681.76651      1257404.8      0.24549523     221.47282      263.12452      301.8765       303.2011       290.69921      169458.83      55.214423      106          
   2947000   1258076.8      676.26761      1257400.5      0.24549523     219.6865       284.26863      300.83983      297.61981      290.70666      169415.98     -33.894386      114          
   2948000   1258080.7      680.04989      1257400.7      0.24549523     220.91518      282.54241      300.49048      302.62498      291.37869      169459.8       19.976522      111          
   2949000   1258076.5      677.52309      1257399        0.24549523     220.09434      294.98615      299.27408      301.09937      291.81918      169476.49      11.023907      114          
   2950000   1258063.5      674.85452      1257388.7      0.24549523     219.22745      277.90732      300.60793      296.06127      291.80389      169424.47     -26.792678      116          
   2951000   1258076.9      677.40223      1257399.5      0.24549523     220.05508      271.00981      299.33508      300.70301      293.70734      169476.72      59.131962      107          
   2952000   1258078.1      676.21517      1257401.8      0.24549523     219.66946      266.34376      299.93356      298.31592      294.05773      169429.6      -61.02484       104          
   2953000   1258071.7      675.09145      1257396.6      0.24549523     219.30442      270.96823      297.27918      300.94308      293.60082      169471.97      76.608098      96           
   2954000   1258073.2      674.47324      1257398.7      0.24549523     219.10359      306.63379      300.40842      294.95228      293.86917      169412.34     -68.97574       104          
   2955000   1258080        676.2896       1257403.7      0.24549523     219.69364      333.97456      297.97561      300.52162      292.99722      169468.25      63.701657      98           
   2956000   1258076.6      678.81943      1257397.7      0.24549523     220.51546      311.70317      298.48186      303.43148      292.43453      169434.65     -43.516655      90           
   2957000   1258075.2      673.58643      1257401.6      0.24549523     218.81551      279.69339      299.0064       296.87522      291.59191      169464.04      40.07147       85           
   2958000   1258083.1      678.82375      1257404.3      0.24549523     220.51686      286.05643      304.04237      295.60459      291.73395      169461.52     -19.149913      88           
   2959000   1258078.5      676.55388      1257401.9      0.24549523     219.77949      263.65348      299.30428      299.62559      294.26088      169439.64      1.3012849      95           
   2960000   1258072.7      676.23898      1257396.4      0.24549523     219.67719      288.82293      298.89514      299.38072      294.64663      169465.56      27.001632      101          
   2961000   1258076.7      677.13381      1257399.5      0.24549523     219.96788      357.80622      297.35333      301.85943      294.0972       169409.02     -36.886827      100          
   2962000   1258078.3      677.82025      1257400.5      0.24549523     220.19087      307.14939      299.61801      299.83129      295.23208      169489.58      53.836893      91           
   2963000   1258083        680.44586      1257402.6      0.24549523     221.04381      304.22184      300.01694      302.30761      295.74703      169386.6      -50.899809      88           
   2964000   1258086.3      681.91837      1257404.4      0.24549523     221.52215      312.93731      302.52485      300.70488      294.03458      169495.12      54.309003      94           
   2965000   1258075.9      678.45435      1257397.4      0.24549523     220.39686      289.06524      301.90011      297.39422      295.37064      169442.28     -39.573914      88           
   2966000   1258080.8      675.60999      1257405.2      0.24549523     219.47287      312.13124      299.82332      296.84692      294.76847      169465.59      40.075274      87           
   2967000   1258077.3      678.054        1257399.2      0.24549523     220.26681      313.64807      303.33151      294.60778      294.53534      169431.82     -21.006793      90           
   2968000   1258085.8      677.31897      1257408.5      0.24549523     220.02803      320.40839      296.93516      302.98585      295.47984      169447.76      7.0063579      88           
   2969000   1258078.5      683.26305      1257395.2      0.24549523     221.95898      345.12467      301.87214      302.65971      294.85278      169491.57      14.3195        90           
   2970000   1258075.5      672.58664      1257402.9      0.24549523     218.49073      307.64143      297.62738      295.98098      296.70071      169412.31     -18.517167      85           
   2971000   1258083.3      676.46456      1257406.8      0.24549523     219.75048      315.94276      295.66428      303.70267      296.29811      169474.48      33.906849      84           
   2972000   1258078.4      675.62592      1257402.8      0.24549523     219.47804      300.83415      297.76169      299.94174      295.3963       169429.96     -34.94764       81           
   2973000   1258083.6      679.75352      1257403.9      0.24549523     220.8189       286.79154      303.84895      295.72358      296.6776       169450.79      40.338444      87           
   2974000   1258079.9      678.9843       1257400.9      0.24549523     220.56902      260.75692      301.87122      297.91961      297.23181      169408.89     -32.68276       88           
   2975000   1258079.2      675.58711      1257403.6      0.24549523     219.46544      326.53097      297.07077      300.21434      296.66056      169475.09      30.236475      96           
   2976000   1258069.9      672.37345      1257397.5      0.24549523     218.42147      332.5192       297.55507      295.54137      296.31427      169442.21     -8.109642       95           
   2977000   1258075.4      677.27206      1257398.1      0.24549523     220.01279      328.22733      302.67808      294.14221      295.55271      169429.19     -0.29327571     87           
   2978000   1258078.2      677.84642      1257400.4      0.24549523     220.19937      340.34653      298.17918      301.48497      295.40891      169466.77      22.908897      91           
   2979000   1258083.6      677.50622      1257406.1      0.24549523     220.08886      311.46252      300.2266       298.65246      294.4717       169409.53     -28.334656      90           
   2980000   1258080.3      675.89326      1257404.4      0.24549523     219.56489      324.12485      298.93773      298.71121      293.3746       169481.3       38.797292      92           
   2981000   1258072.3      676.34507      1257396        0.24549523     219.71166      337.57959      298.966        298.96325      293.70269      169413.77     -31.397971      89           
   2982000   1258076.5      677.66534      1257398.8      0.24549523     220.14055      340.65402      298.78011      300.63259      294.0573       169490.32      34.900042      102          
   2983000   1258073.9      677.46984      1257396.5      0.24549523     220.07704      305.53183      300.09133      298.95953      294.2098       169426.25     -24.852648      93           
   2984000   1258084.5      683.40445      1257401.1      0.24549523     222.00491      341.82981      300.61678      305.19958      293.48062      169453.11      22.319384      84           
   2985000   1258073        671.90728      1257401.1      0.24549523     218.27004      287.69345      296.90532      297.07208      294.49696      169440.22     -3.0919166      71           
   2986000   1258071.4      675.26615      1257396.1      0.24549523     219.36117      289.65153      297.18439      300.93557      293.86397      169453.66      0.50263        90           
   2987000   1258069.5      673.17194      1257396.4      0.24549523     218.68086      282.11643      298.97284      295.78086      293.83942      169490.81      4.4323326      84           
   2988000   1258082.4      677.1434       1257405.2      0.24549523     219.971        290.1858       297.60299      302.8586       292.80705      169419.26     -8.4204803      89           
   2989000   1258073.6      678.14265      1257395.4      0.24549523     220.2956       332.56743      298.78201      302.10905      291.34054      169465.84      25.115974      91           
   2990000   1258079.8      684.04181      1257395.8      0.24549523     222.21196      292.52264      302.99621      303.54771      291.63734      169450.76     -26.255452      85           
   2991000   1258073.7      678.96901      1257394.7      0.24549523     220.56405      344.10582      300.88909      299.84965      291.54023      169470.97      42.920226      81           
   2992000   1258070        674.76803      1257395.2      0.24549523     219.19936      330.17692      298.1869       298.13547      294.55073      169413.53     -33.847049      78           
   2993000   1258080        677.21605      1257402.8      0.24549523     219.9946       345.85025      295.90994      304.26967      294.98121      169470.61      31.656614      72           
   2994000   1258081.6      682.82951      1257398.7      0.24549523     221.81814      363.30095      301.38088      302.96558      294.08         169459.44     -8.7399579      78           
   2995000   1258084        679.38065      1257404.6      0.24549523     220.69777      351.27041      300.95302      299.553        294.10736      169425.45      0.22163897     73           
   2996000   1258073.6      677.3816       1257396.2      0.24549523     220.04838      311.55997      298.82719      300.62004      294.63928      169458.6       22.746147      67           
   2997000   1258082.7      674.9835       1257407.8      0.24549523     219.26935      308.61415      299.53623      296.94034      293.41225      169446.66     -33.275471      78           
   2998000   1258078.4      682.42592      1257396        0.24549523     221.68703      304.05558      302.4411       302.14477      292.03516      169481.26      49.289709      80           
   2999000   1258079.5      678.93248      1257400.5      0.24549523     220.55218      305.9168       299.9746       301.48055      292.25176      169423.72     -45.466927      78           
   3000000   1258074        667.68529      1257406.4      0.24549523     216.89852      276.97698      294.55023      295.88859      293.26862      169454.54      45.875391      77           
   3001000   1258080.7      676.46646      1257404.2      0.24549523     219.75109      310.00073      298.12876      301.11214      292.64506      169427.46     -27.262118      76           
   3002000   1258086.1      678.2863       1257407.8      0.24549523     220.34227      307.19052      297.34208      303.96216      294.7868       169424.24      23.142076      78           
   3003000   1258085.4      680.83135      1257404.6      0.24549523     221.16903      307.92745      301.13621      300.93206      296.43104      169494.95      2.4388761      73           
   3004000   1258083.3      679.34178      1257404        0.24549523     220.68514      278.04417      302.32367      297.6426       296.42134      169448.72     -12.692499      77           
   3005000   1258076.9      678.15404      1257398.7      0.24549523     220.29931      271.49718      299.52954      300.26693      297.22811      169457.85      45.831386      75           
   3006000   1258081.6      676.00566      1257405.6      0.24549523     219.6014       300.57988      298.9596       298.41472      296.18391      169414.24     -50.596717      84           
   3007000   1258082.4      683.29208      1257399.1      0.24549523     221.96841      329.65694      302.02904      302.23498      296.85522      169494.44      61.104344      84           
   3008000   1258071.8      673.42384      1257398.4      0.24549523     218.76269      319.27197      296.40767      299.10136      295.70117      169410.13     -59.987256      71           
   3009000   1258071        673.0547       1257398        0.24549523     218.64278      298.5731       298.35395      295.77433      295.99014      169471.14      56.840747      65           
   3010000   1258077.6      678.39201      1257399.2      0.24549523     220.37661      324.39498      297.57401      303.32783      295.79516      169430.27     -35.364736      66           
   3011000   1258074        670.89544      1257403.1      0.24549523     217.94134      333.8524       295.7255       296.61052      296.38181      169471.56      27.198857      66           
   3012000   1258075.8      678.09544      1257397.7      0.24549523     220.28027      341.1993       296.73489      303.72936      297.03338      169419.66     -5.3583683      61           
   3013000   1258076.9      680.61123      1257396.3      0.24549523     221.09753      325.94796      302.50327      297.53982      299.79085      169484.88     -0.71255576     62           
   3014000   1258082        676.9868       1257405        0.24549523     219.92012      327.78218      298.85145      298.35202      300.40644      169435.41      26.357567      68           
   3015000   1258074.6      675.02106      1257399.6      0.24549523     219.28155      286.1962       296.96008      299.08248      300.94742      169437.32     -30.83888       65           
   3016000   1258079.8      677.75117      1257402        0.24549523     220.16843      288.68321      296.9429       302.87809      299.34833      169484.47      50.072402      68           
   3017000   1258075.1      675.16828      1257399.9      0.24549523     219.32938      270.86456      296.64109      300.94556      296.93345      169399.67     -45.612888      66           
   3018000   1258073.6      676.64964      1257397        0.24549523     219.8106       295.52559      300.28516      297.24056      296.32441      169487.14      46.469858      74           
   3019000   1258077.7      675.78481      1257402        0.24549523     219.52966      289.63547      302.80013      292.62784      295.73106      169429.85     -35.515757      80           
   3020000   1258083.7      677.25412      1257406.4      0.24549523     220.00697      285.97747      298.11852      301.18053      297.20131      169487.51      36.950611      86           
   3021000   1258074        675.39816      1257398.6      0.24549523     219.40405      249.48228      295.50128      302.93474      298.45271      169415.06     -15.390672      87           
   3022000   1258078.5      678.80526      1257399.7      0.24549523     220.51086      247.36165      301.94686      297.06306      300.02613      169437         4.3932552      87           
   3023000   1258074.6      676.47219      1257398.2      0.24549523     219.75295      238.72186      298.43887      299.47808      300.44222      169454.43      23.306951      87           
   3024000   1258084.1      676.52306      1257407.6      0.24549523     219.76948      229.8849       298.8104       298.98206      300.58258      169408.36     -33.026765      81           
   3025000   1258078.3      680.03142      1257398.2      0.24549523     220.90918      268.17334      299.66632      302.05185      299.00114      169460         48.659194      90           
   3026000   1258079.8      678.25832      1257401.6      0.24549523     220.33318      265.32181      300.13198      299.33158      298.38935      169422.39     -47.316506      96           
   3027000   1258069.5      673.05201      1257396.5      0.24549523     218.6419       272.38936      298.7707       294.92898      298.30855      169464.14      48.552615      92           
   3028000   1258079.9      680.37391      1257399.5      0.24549523     221.02043      303.11973      300.12037      301.43196      298.29037      169399.08     -32.79167       99           
   3029000   1258081.3      677.89314      1257403.4      0.24549523     220.21455      291.58592      298.24481      301.27299      298.68099      169495.94      27.013416      98           
   3030000   1258088.7      682.12242      1257406.6      0.24549523     221.58844      331.81085      303.52562      297.46598      300.24002      169449.6       0.063981421    105          
   3031000   1258077.6      676.97219      1257400.6      0.24549523     219.91538      315.08842      297.83626      299.8008       300.80872      169456.04     -10.985952      101          
   3032000   1258083.7      680.33151      1257403.4      0.24549523     221.00666      338.72654      297.62226      304.1741       299.80865      169441.49      32.064121      100          
   3033000   1258094.1      684.62641      1257409.4      0.24549523     222.40186      315.07925      301.86399      303.47721      299.79675      169456.26     -35.777019      90           
   3034000   1258086.8      678.7318       1257408.1      0.24549523     220.48699      355.48624      298.58111      300.40247      300.21908      169456.75      44.710841      95           
   3035000   1258082.2      681.03486      1257401.2      0.24549523     221.23514      319.47805      299.21225      303.1082       299.41721      169445.84     -34.542287      83           
   3036000   1258079.4      676.6291       1257402.7      0.24549523     219.80393      290.59405      298.8275       298.66282      299.35205      169492.06      26.529445      83           
   3037000   1258078.4      681.1644       1257397.2      0.24549523     221.27722      286.90785      303.45665      297.13266      300.16305      169444.31     -4.8457173      95           
   3038000   1258076.4      676.50227      1257399.9      0.24549523     219.76273      330.22008      298.93434      297.37429      300.85418      169465.07     -1.8995527      98           
   3039000   1258079.9      678.51375      1257401.4      0.24549523     220.41616      308.69411      299.89417      298.60751      301.29785      169458.37      25.653097      93           
   3040000   1258090.8      691.23127      1257399.6      0.24549523     224.54746      306.94925      305.20215      305.74759      303.33099      169461.63     -33.477916      92           
   3041000   1258081.2      677.60616      1257403.6      0.24549523     220.12133      296.24756      296.78885      301.86954      303.09498      169430.42      49.050718      96           
   3042000   1258078.5      677.0587       1257401.5      0.24549523     219.94348      269.65805      296.99522      301.49765      302.40406      169465.98     -32.432998      96           
   3043000   1258078        676.24356      1257401.8      0.24549523     219.67868      267.8095       301.91971      293.39408      301.13089      169455.13      18.768243      97           
   3044000   1258082.1      685.9289       1257396.2      0.24549523     222.82498      297.32613      304.64238      300.94672      300.55738      169464.68      1.2410516      92           
   3045000   1258086.9      684.80738      1257402.1      0.24549523     222.46065      315.10491      304.62602      299.67768      299.27014      169453.43     -3.0609998      92           
   3046000   1258084.2      683.60372      1257400.6      0.24549523     222.06964      322.34688      301.22069      302.96415      300.22581      169469.96      30.668494      91           
   3047000   1258082.8      682.19972      1257400.6      0.24549523     221.61355      276.44118      302.38766      299.6877       301.76848      169449.98     -38.39365       81           
   3048000   1258076.9      676.80586      1257400.1      0.24549523     219.86135      288.64251      298.98198      297.79036      302.49737      169437.07      53.228096      85           
   3049000   1258082        681.56203      1257400.4      0.24549523     221.4064       291.2965       301.06476      300.4715       302.5562       169457.28     -51.053789      90           
   3050000   1258092.9      690.75805      1257402.2      0.24549523     224.39374      303.95128      301.41506      311.20559      302.20009      169461.58      57.025666      96           
   3051000   1258079.7      676.24441      1257403.5      0.24549523     219.67896      315.72859      302.331        291.68721      302.56914      169437.7      -46.809924      81           
   3052000   1258089.1      682.74713      1257406.4      0.24549523     221.79138      303.34788      301.80767      300.88267      301.81104      169467.58      38.68604       69           
   3053000   1258080.1      677.0816       1257403        0.24549523     219.95092      294.98161      302.54853      292.78607      302.22732      169456.75     -8.7494227      75           
   3054000   1258082.5      683.48846      1257399        0.24549523     222.0322       278.15616      300.57742      303.8879       302.04613      169483.78     -5.2721616      78           
   3055000   1258089.7      682.56992      1257407.1      0.24549523     221.73381      295.23182      303.28871      298.54206      301.80079      169448.67      32.371061      83           
   3056000   1258084.6      681.38116      1257403.2      0.24549523     221.34764      314.43586      302.28981      297.86142      303.52795      169446.11     -44.592719      88           
   3057000   1258073.7      670.51137      1257403.2      0.24549523     217.81657      322.26543      296.49951      293.31835      302.58685      169471.07      67.310434      89           
   3058000   1258079.1      680.61649      1257398.4      0.24549523     221.09924      303.84955      299.13992      301.90147      303.06748      169406.83     -65.840192      87           
   3059000   1258087        685.24049      1257401.7      0.24549523     222.60135      297.07308      300.09358      306.12626      303.61334      169467.86      77.478463      86           
   3060000   1258082.9      679.62929      1257403.3      0.24549523     220.77854      348.19266      300.41653      298.31641      302.58702      169438.41     -65.253005      87           
   3061000   1258077.4      678.47464      1257399        0.24549523     220.40345      315.90133      297.07661      301.94018      304.22868      169479.39      58.251092      78           
   3062000   1258082.4      681.32069      1257401.1      0.24549523     221.328        296.10661      303.07575      296.54846      304.66348      169442.93     -35.804441      83           
   3063000   1258086.8      684.15923      1257402.6      0.24549523     222.2501       291.03381      304.45161      298.12561      304.31966      169460.47      25.263849      82           
   3064000   1258087.9      684.82744      1257403.1      0.24549523     222.46717      308.38171      302.54971      301.97313      302.87977      169495.22      4.1527758      79           
   3065000   1258090.7      685.75786      1257405        0.24549523     222.76942      291.95581      303.25723      302.18573      303.11782      169417.08     -15.372686      75           
   3066000   1258088        682.763        1257405.2      0.24549523     221.79653      301.07281      300.06472      303.35425      302.57056      169482.44      35.848335      81           
   3067000   1258084.8      682.65199      1257402.1      0.24549523     221.76047      323.68143      301.40085      301.18702      301.60817      169435.73     -39.326961      82           
   3068000   1258075.3      673.05459      1257402.2      0.24549523     218.64274      321.71037      294.65677      299.21769      302.84067      169464.25      50.86732       78           
   3069000   1258085.8      684.25082      1257401.5      0.24549523     222.27985      268.31084      302.82601      301.17256      303.44007      169453.64     -40.101938      75           
   3070000   1258087.5      681.54079      1257406        0.24549523     221.3995       317.63636      299.65235      302.02743      303.36164      169461.4       49.353109      87           
   3071000   1258083.8      681.69542      1257402.1      0.24549523     221.44973      341.46559      300.83804      300.07864      303.54045      169409.8      -39.523051      84           
   3072000   1258083.6      679.68029      1257403.9      0.24549523     220.79511      342.01368      299.01059      300.30732      303.46457      169458.42      41.859523      93           
   3073000   1258081.5      677.34801      1257404.2      0.24549523     220.03747      331.96525      298.12445      298.98841      303.35796      169457.34     -19.254699      84           
   3074000   1258075.6      677.62385      1257398        0.24549523     220.12707      295.01594      300.76365      295.72396      303.73855      169444.54      14.72781       70           
   3075000   1258089.1      683.14353      1257405.9      0.24549523     221.92015      349.44384      300.24287      302.6308       304.13631      169452.6       5.7699413      67           
   3076000   1258085        681.53405      1257403.5      0.24549523     221.39731      317.23557      296.91752      305.84461      304.61939      169448.62     -10.14222       66           
   3077000   1258093.8      685.68587      1257408.1      0.24549523     222.74603      312.65196      302.9431       301.9683       304.42452      169452.8       26.856512      80           
   3078000   1258085.6      686.82938      1257398.7      0.24549523     223.1175       296.96634      303.20433      303.26794      303.93299      169434.83     -27.36721       79           
   3079000   1258080        678.79146      1257401.2      0.24549523     220.50637      285.03343      301.38635      296.47033      303.53846      169474.14      35.615775      86           
   3080000   1258081.3      681.93717      1257399.4      0.24549523     221.52826      289.7858       299.23965      303.62932      303.4571       169465.1      -18.704982      85           
   3081000   1258075.7      676.08053      1257399.6      0.24549523     219.62572      287.42684      299.55772      296.12278      302.33659      169440.36      15.879784      79           
   3082000   1258079.6      677.00522      1257402.6      0.24549523     219.92611      312.02589      298.58155      298.5753       301.74569      169443.74     -0.28709519     83           
   3083000   1258078.2      680.94091      1257397.2      0.24549523     221.20462      345.56806      301.2544       298.9379       301.74071      169456.59      2.7910826      86           
   3084000   1258083.4      681.89452      1257401.5      0.24549523     221.51441      359.23614      301.91037      298.96107      301.34457      169471.52      6.2848301      89           
   3085000   1258084.9      678.27771      1257406.6      0.24549523     220.33948      320.76736      297.93599      300.70762      302.77428      169446.64     -5.189342       88           
   3086000   1258082.3      680.56414      1257401.8      0.24549523     221.08223      309.42932      302.50992      296.28191      304.55927      169457.78      11.960713      84           
   3087000   1258079        679.26035      1257399.7      0.24549523     220.65869      315.36342      299.95056      298.53168      304.26371      169475.85     -1.8737138      88           
   3088000   1258079        681.12276      1257397.9      0.24549523     221.2637       304.85101      301.79209      298.65246      302.83416      169451.86      17.095843      92           
   3089000   1258083.9      680.94485      1257403        0.24549523     221.20591      267.82298      301.34004      299.73834      302.50116      169479.95     -2.7180207      100          
   3090000   1258080.4      672.88979      1257407.5      0.24549523     218.58921      252.94551      294.80744      299.97495      302.01601      169435.05      16.48223       94           
   3091000   1258082        678.50858      1257403.5      0.24549523     220.41448      300.55046      300.13222      298.17801      302.00206      169477.06     -10.020592      107          
   3092000   1258078.8      678.59253      1257400.2      0.24549523     220.44175      297.43509      301.36865      296.4503       302.07745      169403.95      11.757092      102          
   3093000   1258083.5      679.20214      1257404.3      0.24549523     220.63978      318.29177      301.61312      296.68192      301.38847      169432.75     -2.3113246      92           
   3094000   1258082.9      681.71208      1257401.2      0.24549523     221.45514      325.4839       301.08287      300.08204      302.83134      169465.21      8.8314852      101          
   3095000   1258084.6      679.0962       1257405.5      0.24549523     220.60537      307.30439      303.7169       292.89313      303.86182      169474.23     -0.60104827     98           
   3096000   1258072.5      673.8778       1257398.7      0.24549523     218.91016      304.6908       296.91354      296.96722      303.06492      169455.63     -0.43615065     93           
   3097000   1258076        676.39161      1257399.6      0.24549523     219.72678      303.90958      298.00281      298.61175      302.42825      169443.54      13.454733      94           
   3098000   1258076        676.30812      1257399.7      0.24549523     219.69966      296.00167      297.41448      299.88493      301.00109      169492.82     -13.870139      87           
   3099000   1258078.3      676.17256      1257402.1      0.24549523     219.65562      291.75179      297.50932      299.58476      300.87406      169431.26      27.532229      82           
   3100000   1258085.5      684.55737      1257400.9      0.24549523     222.37944      320.57081      301.01769      304.0163       301.9423       169447.41     -19.545566      92           
   3101000   1258075.9      679.48588      1257396.4      0.24549523     220.73196      319.52297      298.45048      301.73535      301.49591      169459.93      25.683537      103          
   3102000   1258074.7      678.5887       1257396.1      0.24549523     220.44051      305.65141      299.72014      298.78156      302.13903      169461.87     -17.280517      94           
   3103000   1258081        681.65378      1257399.4      0.24549523     221.4362       305.03711      300.1436       302.20194      301.06855      169410.78      22.003962      103          
   3104000   1258077.6      678.36445      1257399.3      0.24549523     220.36766      303.4814       297.57774      302.43908      299.54732      169441.33     -11.973918      111          
   3105000   1258083.2      677.37201      1257405.8      0.24549523     220.04526      322.59667      298.31845      300.00828      298.91444      169475         16.412985      103          
   3106000   1258076.2      675.14079      1257401        0.24549523     219.32045      274.91134      301.2064       293.68359      298.7526       169421.59     -2.8123128      100          
   3107000   1258079.2      678.80542      1257400.4      0.24549523     220.51091      301.99221      301.21135      297.81815      298.50968      169479.3       8.9178647      105          
   3108000   1258085.5      681.37198      1257404.1      0.24549523     221.34466      274.53612      302.87891      299.03596      298.17278      169423.39      5.0825152      112          
   3109000   1258072.3      671.5248       1257400.8      0.24549523     218.14579      293.25421      297.08859      295.31271      298.4081       169498.95     -4.0695019      108          
   3110000   1258080.9      683.49977      1257397.4      0.24549523     222.03588      316.9249       301.6451       302.8715       297.86351      169440.9       19.910528      102          
   3111000   1258074.6      678.09731      1257396.5      0.24549523     220.28088      299.74899      299.07848      300.7081       296.58692      169463.34     -13.172049      98           
   3112000   1258067.4      674.23093      1257393.2      0.24549523     219.02488      271.00406      296.72548      299.75228      297.29649      169440.18      23.062501      100          
   3113000   1258077.8      679.76239      1257398        0.24549523     220.82178      263.62167      301.43317      299.65555      297.08432      169421.05     -19.553911      102          
   3114000   1258066.8      671.27284      1257395.5      0.24549523     218.06394      278.8128       295.15652      298.26644      297.64098      169489.56      31.103097      102          
   3115000   1258076.5      674.83588      1257401.7      0.24549523     219.2214       270.42628      297.08744      299.60113      298.54765      169399.46     -18.880655      102          
   3116000   1258081.4      681.38817      1257400        0.24549523     221.34992      278.7774       299.95024      303.03667      299.30664      169488.69      19.829193      110          
   3117000   1258079.7      678.01759      1257401.7      0.24549523     220.25498      272.25467      300.11615      298.64549      299.94069      169406.07     -0.71483282     113          
   3118000   1258085.9      682.13371      1257403.8      0.24549523     221.59211      296.36125      298.13442      306.02128      300.64988      169486.87     -3.8383182      109          
   3119000   1258081.2      680.38494      1257400.8      0.24549523     221.02402      304.52253      298.71829      303.03984      300.0097       169438.54      20.050441      117          
   3120000   1258078.8      672.92257      1257405.9      0.24549523     218.59986      319.89665      296.95052      297.01588      297.04118      169436.76     -27.250493      124          
   3121000   1258078.5      680.27375      1257398.2      0.24549523     220.9879       301.25386      300.54857      301.40868      295.53526      169463.39      37.036338      117          
   3122000   1258075.4      674.79313      1257400.6      0.24549523     219.20751      319.69539      298.73064      297.6296       293.30953      169439.46     -33.772717      121          
   3123000   1258073.6      677.27246      1257396.3      0.24549523     220.01292      297.10373      299.05036      300.16964      295.02904      169488.36      47.859361      116          
   3124000   1258081.2      676.84674      1257404.3      0.24549523     219.87463      290.71916      297.93753      301.03706      296.58915      169380.95     -35.080466      115          
   3125000   1258085.7      683.55024      1257402.1      0.24549523     222.05227      295.79122      301.33341      303.60371      298.73577      169524.93      29.299561      112          
   3126000   1258074.4      677.07888      1257397.4      0.24549523     219.95004      325.3766       298.07772      299.97068      298.62478      169423.41     -9.9560156      114          
   3127000   1258080.8      680.0769       1257400.7      0.24549523     220.92395      307.42637      298.48928      302.97261      300.01387      169488.44      9.3457417      119          
   3128000   1258073.6      677.48002      1257396.1      0.24549523     220.08035      308.9316       295.68008      304.51808      297.58256      169443.5       11.993474      126          
   3129000   1258082.3      673.28931      1257409        0.24549523     218.71899      328.08955      297.02486      297.22222      296.96326      169441.63     -16.801549      122          
   3130000   1258079.8      678.62887      1257401.2      0.24549523     220.45356      319.37961      300.63161      298.97494      295.32431      169482.19      39.703721      121          
   3131000   1258068.7      675.33775      1257393.3      0.24549523     219.38443      275.40007      302.13737      293.16719      296.38747      169401.03     -38.742262      114          
   3132000   1258083.7      682.24336      1257401.5      0.24549523     221.62773      266.67616      301.65117      302.51419      296.37352      169496.12      45.510549      119          
   3133000   1258079.5      678.56997      1257400.9      0.24549523     220.43442      314.10435      300.03651      299.3417       297.37675      169436.87     -37.848736      125          
   3134000   1258071.7      678.25661      1257393.5      0.24549523     220.33263      319.26939      299.70485      299.12582      298.26158      169476.97      41.052395      124          
   3135000   1258083        678.64871      1257404.4      0.24549523     220.46         305.69498      299.90008      299.42302      298.84904      169416.9      -19.559996      115          
   3136000   1258074.2      675.39549      1257398.8      0.24549523     219.40319      309.78986      299.68191      295.57013      299.32893      169472.52      9.3897659      111          
   3137000   1258078.3      677.25404      1257401.1      0.24549523     220.00694      318.80828      301.82584      294.91279      297.63268      169439.96      10.757849      113          
   3138000   1258083        677.78884      1257405.2      0.24549523     220.18067      325.87876      299.5415       299.06532      297.11138      169432.63     -18.209249      119          
   3139000   1258094        687.04152      1257406.9      0.24549523     223.18642      296.22243      301.53817      307.08962      300.2605       169497.16      31.521648      108          
   3140000   1258089.1      682.16088      1257407        0.24549523     221.60093      273.45105      301.27892      302.00394      299.62303      169423.77     -27.608431      101          
   3141000   1258082.3      681.69371      1257400.6      0.24549523     221.44917      268.92142      301.29481      301.49663      299.51418      169463.13      34.003592      99           
   3142000   1258080.6      684.46932      1257396.1      0.24549523     222.35083      282.52353      303.60843      301.31355      299.28392      169419.92     -24.178692      112          
   3143000   1258075.3      677.86302      1257397.4      0.24549523     220.20477      319.51557      297.80068      301.361        298.80729      169487.8       27.625268      117          
   3144000   1258079        683.5934       1257395.4      0.24549523     222.06629      334.88667      299.6013       305.74842      297.70922      169418.9      -7.8375512      113          
   3145000   1258078.7      676.92297      1257401.8      0.24549523     219.89939      332.14303      298.27995      299.669        297.51949      169474.72      10.11944       114          
   3146000   1258081.5      679.72416      1257401.8      0.24549523     220.80936      318.56777      300.61476      299.83551      297.318        169417.88      4.4547794      120          
   3147000   1258083.7      679.40178      1257404.3      0.24549523     220.70464      316.55022      303.02373      295.81114      297.56095      169461.58     -10.561232      113          
   3148000   1258074.4      677.43964      1257397        0.24549523     220.06723      272.59657      301.85909      295.82135      297.78608      169444.41      25.298968      100          
   3149000   1258080.7      677.66787      1257403.1      0.24549523     220.14137      304.89015      299.56478      299.27568      296.77217      169429.89     -24.069302      110          
   3150000   1258073.7      681.53332      1257392.2      0.24549523     221.39707      283.08253      299.04572      304.65655      298.92257      169468.15      33.185282      114          
   3151000   1258073.7      673.55136      1257400.2      0.24549523     218.80412      285.29904      292.35534      304.82205      299.01839      169419.52     -19.672958      106          
   3152000   1258073.1      670.45921      1257402.6      0.24549523     217.79963      281.22885      294.86684      297.1919       299.39133      169449.28      18.419863      114          
   3153000   1258085.9      680.32561      1257405.6      0.24549523     221.00474      291.68866      299.5406       303.12772      295.8686       169410.75     -7.2616405      112          
   3154000   1258082.1      676.38631      1257405.7      0.24549523     219.72506      313.52547      298.23181      300.32113      293.78903      169499.43      3.9141135      112          
   3155000   1258083.5      680.20949      1257403.3      0.24549523     220.96702      343.42202      298.97999      303.68443      292.4373       169425         12.500189      124          
   3156000   1258075.7      674.22656      1257401.5      0.24549523     219.02346      297.49823      298.14359      297.59733      295.72765      169454.83     -9.4109151      111          
   3157000   1258083.1      680.53425      1257402.6      0.24549523     221.07252      305.02272      302.84808      297.96159      296.81156      169445.59      25.477365      113          
   3158000   1258074.1      678.75212      1257395.4      0.24549523     220.49359      311.78797      302.42445      295.89737      297.78206      169418.38     -21.444193      113          
   3159000   1258080.3      681.39851      1257398.9      0.24549523     221.35328      310.5892       301.40022      299.7243       301.58035      169484.93      27.699064      109          
   3160000   1258082        680.13459      1257401.9      0.24549523     220.94269      301.83139      301.68228      297.62639      302.75404      169413.34     -27.163507      110          
   3161000   1258082.7      681.22235      1257401.5      0.24549523     221.29605      263.30969      301.4606       300.23602      301.81794      169520.93      27.748297      114          
   3162000   1258087.7      686.0513       1257401.7      0.24549523     222.86474      233.74956      305.60333      300.93821      299.81075      169411.17     -13.303553      108          
   3163000   1258075.3      677.9219       1257397.3      0.24549523     220.2239       278.58054      299.28725      300.42504      296.96081      169457.8       20.063435      106          
   3164000   1258075.4      676.87209      1257398.6      0.24549523     219.88286      254.52839      298.51768      300.75948      296.58268      169436.93     -10.733792      101          
   3165000   1258079.5      681.66389      1257397.8      0.24549523     221.43949      271.82568      300.26514      303.69288      296.74851      169442.31      9.5705706      98           
   3166000   1258077.2      678.54348      1257398.6      0.24549523     220.42582      257.26984      299.17038      301.20052      298.68246      169453.41      4.6159666      96           
   3167000   1258088.6      683.6772       1257404.9      0.24549523     222.09351      239.14509      305.20797      297.97344      301.80434      169438.27     -0.38669729     101          
   3168000   1258088.9      682.66654      1257406.3      0.24549523     221.7652       257.26621      301.68824      301.23302      303.77997      169470.92      15.537565      110          
   3169000   1258082.5      684.22005      1257398.2      0.24549523     222.26986      271.02749      305.19126      297.62512      304.01445      169419.74     -11.642611      111          
   3170000   1258079.2      677.82299      1257401.3      0.24549523     220.19176      269.28057      297.98415      300.7779       303.19597      169485.78      16.139889      107          
   3171000   1258087.3      683.68801      1257403.6      0.24549523     222.09702      266.12703      303.20909      300.79952      300.96866      169433.98     -4.0189662      112          
   3172000   1258090.6      683.32128      1257407.3      0.24549523     221.97789      276.76135      299.80652      305.82604      298.98358      169462.86      7.9580251      119          
   3173000   1258087.7      677.68213      1257410        0.24549523     220.146        291.89332      301.06038      296.83377      298.77431      169451.1       5.1674854      117          
   3174000   1258080.2      677.86483      1257402.3      0.24549523     220.20535      315.50676      299.15862      299.59435      298.07661      169458.66      0.50515642     111          
   3175000   1258085.3      679.77515      1257405.5      0.24549523     220.82593      327.9395       299.49758      301.11084      298.69426      169454.8       11.83677       105          
   3176000   1258082.9      683.12251      1257399.8      0.24549523     221.91332      291.3054       300.99827      303.41561      299.64343      169459.42     -3.5141657      113          
   3177000   1258084.4      680.82714      1257403.6      0.24549523     221.16767      289.30265      302.62707      297.87542      300.49082      169468.15      9.7763424      113          
   3178000   1258084.2      676.34681      1257407.8      0.24549523     219.71223      283.95078      298.46319      298.85379      300.15759      169445.9       2.2339472      113          
   3179000   1258085.4      682.78069      1257402.6      0.24549523     221.80228      285.26503      303.35437      299.91451      297.82161      169474.18      4.2537819      110          
   3180000   1258077.5      679.87652      1257397.6      0.24549523     220.85886      277.65805      299.68392      302.34209      296.6291       169442.33      4.2626427      99           
   3181000   1258085.8      681.82006      1257403.9      0.24549523     221.49022      319.09289      301.39007      302.28139      293.58045      169471.11      8.0544169      104          
   3182000   1258078.6      677.14512      1257401.4      0.24549523     219.97156      322.77192      298.20502      301.12763      294.18335      169438.77      3.6091729      104          
   3183000   1258082.7      680.72032      1257401.9      0.24549523     221.13297      321.88501      303.10662      297.59714      296.23925      169447.53     -0.38479489     104          
   3184000   1258087.7      683.78925      1257403.9      0.24549523     222.12991      320.16157      299.51917      305.89382      299.56412      169459.05      14.635997      111          
   3185000   1258083.6      681.1969       1257402.4      0.24549523     221.28778      298.55664      300.67018      300.82398      301.57534      169414.67     -10.729119      113          
   3186000   1258081.4      677.17539      1257404.3      0.24549523     219.98139      301.49613      298.00767      299.85446      301.48625      169474.89      25.031467      109          
   3187000   1258079.8      680.94102      1257398.9      0.24549523     221.20466      272.57668      302.98395      297.62567      300.89299      169458.09     -17.764234      103          
   3188000   1258073.6      676.13173      1257397.4      0.24549523     219.64236      303.69256      302.06669      293.6221       296.97452      169452.86      26.137417      104          
   3189000   1258080.2      673.65666      1257406.6      0.24549523     218.83832      285.29446      298.56644      296.60812      295.08839      169442.03     -14.935024      96           
   3190000   1258085.8      680.52521      1257405.3      0.24549523     221.06958      278.38833      300.349        302.32171      295.91196      169462.81      13.662889      101          
   3191000   1258087.7      684.48386      1257403.3      0.24549523     222.35556      281.54136      303.42755      302.52982      295.71733      169438.71      1.6789529      99           
   3192000   1258083.8      683.44476      1257400.3      0.24549523     222.018        305.08842      302.06079      302.3036       298.11749      169476.25      1.5944186      100          
   3193000   1258081.2      678.74112      1257402.5      0.24549523     220.49002      298.13212      300.03542      299.4434       298.99289      169497.49      18.53407       100          
   3194000   1258077.9      675.50742      1257402.4      0.24549523     219.43955      282.31494      297.58386      298.83824      301.1255       169418.03     -14.78174       100          
   3195000   1258082.8      674.74303      1257408.1      0.24549523     219.19123      299.8178       298.77077      296.00579      300.41217      169474.55      26.66603       105          
   3196000   1258085        684.36511      1257400.6      0.24549523     222.31698      294.37957      302.32663      302.82807      299.52398      169465.07     -21.323049      96           
   3197000   1258077.3      676.48654      1257400.8      0.24549523     219.75761      304.10858      297.26255      300.69336      299.21698      169455.06      25.172296      94           
   3198000   1258085.6      680.49541      1257405.1      0.24549523     221.0599       311.88327      301.0963       299.929        298.6918       169430.44     -7.6020972      93           
   3199000   1258077.9      675.31673      1257402.6      0.24549523     219.3776       294.22884      297.1095       299.25622      300.60131      169458.1       11.991211      81           
   3200000   1258079.1      674.85927      1257404.2      0.24549523     219.22899      313.05245      299.12907      295.02277      302.03007      169432.56      4.144871       83           
   3201000   1258082.5      674.82889      1257407.7      0.24549523     219.21913      283.43353      297.12816      297.76198      304.29578      169446.41     -3.8446427      79           
   3202000   1258090.4      680.50215      1257409.9      0.24549523     221.06209      342.19725      300.90637      298.26757      304.31879      169453.53      23.345862      85           
   3203000   1258079.5      678.08281      1257401.4      0.24549523     220.27617      285.30087      298.07698      300.39054      303.91924      169437.17     -19.128398      84           
   3204000   1258086.3      681.9998       1257404.3      0.24549523     221.54861      313.24455      299.61796      302.26501      304.97789      169461.13      30.678848      93           
   3205000   1258083.6      682.64894      1257400.9      0.24549523     221.75948      328.5835       302.03889      299.51563      303.74896      169425.57     -21.083576      95           
   3206000   1258079.2      675.9945       1257403.2      0.24549523     219.59778      341.95422      297.72929      298.07049      302.10718      169464.81      21.215204      92           
   3207000   1258084.4      679.49415      1257404.9      0.24549523     220.73464      289.49023      302.0606       296.64991      301.87588      169495.97     -0.36632543     77           
   3208000   1258089        683.709        1257405.3      0.24549523     222.10384      293.51481      300.78004      304.02103      300.691        169440.64     -9.594872       70           
   3209000   1258088.8      682.33061      1257406.5      0.24549523     221.65607      296.48156      301.32885      301.35435      301.46501      169464.97      23.342894      67           
   3210000   1258082        679.42581      1257402.6      0.24549523     220.71244      306.86172      299.11775      300.84919      301.67735      169456.64     -15.253197      61           
   3211000   1258083.9      680.26851      1257403.7      0.24549523     220.9862       297.79003      299.42518      301.38775      302.85359      169460.97      30.699999      72           
   3212000   1258090.1      682.03361      1257408.1      0.24549523     221.55959      299.88417      301.13837      300.50834      303.97719      169405.01     -30.864361      71           
   3213000   1258080.7      675.29683      1257405.4      0.24549523     219.37114      281.25601      298.83264      296.09288      303.21923      169499.09      41.767033      80           
   3214000   1258075.4      673.89865      1257401.5      0.24549523     218.91694      319.46352      294.98896      299.50889      303.76564      169461.14     -36.103572      88           
   3215000   1258086        680.78253      1257405.3      0.24549523     221.15317      287.29307      299.28972      301.76507      304.45839      169461.7       42.664085      88           
   3216000   1258093        686.49239      1257406.5      0.24549523     223.00803      331.54363      306.22362      297.64169      304.81271      169425.38     -26.244631      90           
   3217000   1258087.9      680.60576      1257407.3      0.24549523     221.09575      320.00292      298.29173      302.00281      306.63521      169494.48      19.663757      94           
   3218000   1258077.2      676.89895      1257400.3      0.24549523     219.89159      323.884        299.15831      296.08303      306.67803      169421.29      8.5415399      90           
   3219000   1258085.2      678.08698      1257407.1      0.24549523     220.27752      311.73666      297.67769      299.92158      306.75846      169468.32     -14.724686      90           
   3220000   1258077.9      675.5648       1257402.3      0.24549523     219.45819      274.39384      297.34772      297.88179      306.63807      169453.42      36.71652       91           
   3221000   1258086.4      681.09383      1257405.3      0.24549523     221.2543       318.49942      300.30557      300.18741      304.38599      169421.55     -32.996495      97           
   3222000   1258085.7      682.21473      1257403.4      0.24549523     221.61843      326.53629      303.0397       297.77574      302.72295      169479.82      46.775013      96           
   3223000   1258090.6      689.62633      1257401        0.24549523     224.0261       309.33161      304.62366      304.53959      303.53172      169443.87     -37.079639      110          
   3224000   1258082.4      677.08179      1257405.3      0.24549523     219.95098      309.52103      299.09333      297.08589      304.65469      169498.27      37.38185       113          
   3225000   1258078.4      681.10873      1257397.3      0.24549523     221.25914      310.75602      302.03815      297.29314      305.95277      169402.9      -18.169811      111          
   3226000   1258078.8      679.80389      1257399        0.24549523     220.83526      313.03014      297.55673      301.99722      307.44309      169487.3       15.850097      109          
   3227000   1258089.6      688.37329      1257401.2      0.24549523     223.61904      272.60114      302.7192       304.94636      309.47398      169416.26      11.818098      112          
   3228000   1258077.6      676.89197      1257400.7      0.24549523     219.88932      315.06655      296.78042      299.10542      309.11231      169454.88     -16.218315      112          
   3229000   1258088.4      685.30425      1257403.1      0.24549523     222.62206      326.55951      301.79825      301.95219      308.19318      169460.53      41.18333       109          
   3230000   1258089.7      682.1822       1257407.6      0.24549523     221.60786      246.65703      302.31472      298.55725      308.24018      169433.63     -46.280065      95           
   3231000   1258084.7      684.41341      1257400.3      0.24549523     222.33267      267.2908       301.73063      302.63769      305.53981      169469.26      60.381151      103          
   3232000   1258088.4      678.80619      1257409.6      0.24549523     220.51116      295.69212      301.91895      295.15962      304.98075      169436.9      -54.198572      112          
   3233000   1258101.6      692.00725      1257409.6      0.24549523     224.79954      297.82803      306.60334      303.6279       307.57785      169502.59      57.467341      113          
   3234000   1258090.2      687.34507      1257402.8      0.24549523     223.28502      320.40926      304.43561      300.87034      307.18869      169423.22     -42.683964      106          
   3235000   1258091.9      685.48965      1257406.4      0.24549523     222.68229      298.62994      302.50969      301.40306      308.80473      169507.87      41.675058      94           
   3236000   1258087        681.54049      1257405.4      0.24549523     221.3994       346.53111      301.46558      297.32547      309.03382      169427.95     -21.338959      98           
   3237000   1258083.9      682.25354      1257401.6      0.24549523     221.63103      351.20183      300.04793      299.88102      310.75899      169477.28      12.247223      86           
   3238000   1258075.5      677.34026      1257398.2      0.24549523     220.03495      348.44061      298.72544      296.37695      308.86864      169428.93      16.543378      85           
   3239000   1258078.7      679.54153      1257399.1      0.24549523     220.75004      351.37467      295.29657      304.58014      307.27281      169426.56     -29.262057      92           
   3240000   1258076.8      678.26471      1257398.6      0.24549523     220.33526      322.7273       299.92168      296.42456      307.36377      169485.21      43.6086        89           
   3241000   1258086.3      678.40192      1257407.8      0.24549523     220.37983      305.69907      304.8933       289.35686      307.44937      169423.44     -45.570162      92           
   3242000   1258077.2      679.4472       1257397.7      0.24549523     220.71939      283.41493      299.95312      298.72515      306.17504      169464.69      53.015092      89           
   3243000   1258082        678.67667      1257403.4      0.24549523     220.46908      335.61635      296.47788      301.91019      307.50503      169422.11     -42.867175      95           
   3244000   1258088.5      684.15231      1257404.3      0.24549523     222.24785      289.71876      303.49213      297.96803      310.3524       169489.77      38.300387      84           
   3245000   1258090.3      685.33845      1257404.9      0.24549523     222.63317      286.25268      298.74355      306.39262      311.27196      169414.08     -21.530617      93           
   3246000   1258086.1      681.85924      1257404.3      0.24549523     221.50295      302.40425      301.99989      296.82365      311.87092      169492.83      11.722272      94           
   3247000   1258081.6      681.86063      1257399.7      0.24549523     221.5034       364.56938      300.74359      298.23514      309.96764      169437.19      15.883725      113          
   3248000   1258081        678.99539      1257402        0.24549523     220.57262      335.53501      296.35557      301.75881      310.11118      169444.1      -26.670107      100          
   3249000   1258075        678.27334      1257396.8      0.24549523     220.33806      350.04881      300.41536      294.94929      308.49217      169462.74      45.573025      102          
   3250000   1258089.4      685.70635      1257403.7      0.24549523     222.75268      336.17925      302.63321      301.07478      308.25859      169441.72     -46.501201      94           
   3251000   1258086.4      686.44477      1257400        0.24549523     222.99256      316.48639      301.66635      303.49601      309.12099      169457.1       52.972772      93           
   3252000   1258080.6      686.18448      1257394.4      0.24549523     222.908        330.1518       300.90169      303.64245      310.82363      169440.69     -38.295236      96           
   3253000   1258075.6      673.94646      1257401.7      0.24549523     218.93247      326.66342      295.00859      297.28523      311.75698      169513.74      40.42397       94           
   3254000   1258079.9      679.13136      1257400.7      0.24549523     220.61679      351.75603      297.16476      299.68725      312.98532      169400.14     -26.280388      100          
   3255000   1258081        682.06774      1257398.9      0.24549523     221.57068      307.84929      298.72943      302.22451      310.76017      169494.64      14.301522      93           
   3256000   1258076.3      679.37589      1257396.9      0.24549523     220.69623      279.93659      299.69457      297.52369      311.86772      169444.71      6.2255406      91           
   3257000   1258082.4      684.29975      1257398.1      0.24549523     222.29575      273.25897      298.24661      306.1771       310.73969      169453.04     -15.243585      88           
   3258000   1258086.4      684.94478      1257401.4      0.24549523     222.50529      270.53423      300.14701      304.40717      309.96167      169455.15      37.012989      96           
   3259000   1258080.1      675.51381      1257404.6      0.24549523     219.44162      313.51931      297.43419      296.8678       307.59129      169425.67     -34.019909      99           
   3260000   1258091.4      682.85755      1257408.6      0.24549523     221.82725      282.58431      299.92905      302.62875      307.54302      169522.67      48.569006      96           
   3261000   1258093.5      685.14223      1257408.4      0.24549523     222.56943      275.73762      299.53765      305.94989      308.01547      169396.03     -37.439714      85           
   3262000   1258083.3      680.08584      1257403.2      0.24549523     220.92685      300.55223      300.54563      297.95172      307.81416      169469.07      37.733315      97           
   3263000   1258094.5      691.23574      1257403.2      0.24549523     224.54892      320.94114      306.11167      302.49173      309.59345      169429.05     -15.757821      105          
   3264000   1258086        682.11391      1257403.9      0.24549523     221.58568      289.64651      299.06412      302.00433      311.0372       169482.54      11.611034      103          
   3265000   1258087.7      679.954        1257407.8      0.24549523     220.88402      311.10327      300.59759      297.02261      309.79184      169422.66      9.8867749      98           
   3266000   1258087.7      680.63565      1257407.1      0.24549523     221.10546      307.07701      301.27089      296.97453      309.53999      169455.03     -14.774571      88           
   3267000   1258084.3      682.53274      1257401.8      0.24549523     221.72173      358.24276      303.68155      295.85436      306.30227      169465.7       28.282861      86           
   3268000   1258086.8      680.77538      1257406.1      0.24549523     221.15085      373.38639      300.61134      298.5831       304.35587      169414.33     -23.554317      90           
   3269000   1258086.6      684.91928      1257401.7      0.24549523     222.497        340.98528      304.76439      297.93344      304.44513      169479.35      32.402713      87           
   3270000   1258081.2      681.2428       1257400        0.24549523     221.30269      327.53864      299.69041      300.74013      306.08859      169449.47     -18.705114      87           
   3271000   1258083.5      682.18756      1257401.4      0.24549523     221.6096       280.4603       300.77733      300.39156      308.13928      169476.72      13.85996       84           
   3272000   1258085.1      684.56817      1257400.5      0.24549523     222.38294      301.43503      301.58952      301.06218      310.76041      169413.98      5.7504803      91           
   3273000   1258080.6      681.70627      1257398.8      0.24549523     221.45325      338.58543      298.99986      300.82691      311.14041      169475.46     -6.6015293      92           
   3274000   1258076.6      673.51552      1257403        0.24549523     218.79248      300.98189      295.44515      296.77758      310.59211      169445.86      25.633683      83           
   3275000   1258084        680.56738      1257403.4      0.24549523     221.08328      306.7248       300.85419      297.47862      309.70419      169428.53     -23.19963       91           
   3276000   1258081.2      680.38779      1257400.8      0.24549523     221.02494      254.2385       301.19026      298.12333      307.22483      169461.75      35.590177      93           
   3277000   1258090.3      684.85851      1257405.4      0.24549523     222.47726      268.31615      301.34569      303.52048      306.14785      169405.86     -24.919368      92           
   3278000   1258079.4      681.36047      1257398.1      0.24549523     221.34092      348.08254      298.71693      302.47202      304.13212      169461.98      29.941115      104          
   3279000   1258089.7      686.02953      1257403.7      0.24549523     222.85767      278.27658      299.96507      306.84631      306.31909      169438.89     -9.4556091      101          
   3280000   1258076.2      673.30789      1257402.9      0.24549523     218.72503      280.64792      299.29402      292.09558      306.78588      169460.8      -2.2038852      102          
   3281000   1258092.8      686.69322      1257406.1      0.24549523     223.07327      309.11589      301.10731      304.58519      309.75585      169440.02      22.23716       99           
   3282000   1258088.9      690.62024      1257398.3      0.24549523     224.34897      307.12472      306.83791      300.83656      309.56191      169462.54     -26.681911      94           
   3283000   1258089.1      681.26809      1257407.8      0.24549523     221.31091      325.31086      301.48         297.70395      307.55537      169469.49      34.971701      92           
   3284000   1258087.9      679.4314       1257408.5      0.24549523     220.71426      329.35894      301.09896      296.29235      306.40265      169458.2      -26.770805      85           
   3285000   1258091.3      683.00324      1257408.2      0.24549523     221.87457      323.63594      301.84447      299.82357      305.76847      169484.45      27.021603      80           
   3286000   1258081.4      680.13052      1257401.2      0.24549523     220.94137      332.78392      301.80694      296.58246      304.2218       169460.27     -16.250948      86           
   3287000   1258082.7      681.33798      1257401.4      0.24549523     221.33361      304.75809      302.07432      297.65561      305.76523      169436.3       17.159155      80           
   3288000   1258073.7      675.19032      1257398.5      0.24549523     219.33654      318.51399      295.60359      298.76627      309.19225      169440.39     -2.412013       87           
   3289000   1258081.9      675.04782      1257406.8      0.24549523     219.29025      301.93519      298.01172      294.71593      310.85914      169493.19      5.2421784      82           
   3290000   1258076        681.51641      1257394.5      0.24549523     221.39158      284.84566      299.72833      300.03409      311.83579      169448.81      4.5188588      79           
   3291000   1258082.3      685.07661      1257397.2      0.24549523     222.54811      309.55399      300.73411      302.65947      311.60986      169459.83     -3.3334554      97           
   3292000   1258081.6      678.68642      1257402.9      0.24549523     220.47225      297.22674      298.60237      298.65129      309.75481      169476.25      14.38709       92           
   3293000   1258092.4      681.04636      1257411.3      0.24549523     221.23888      318.48437      299.26401      301.02891      306.93543      169416.88     -9.63025        90           
   3294000   1258082.7      678.29037      1257404.4      0.24549523     220.34359      318.45497      302.08688      293.95621      304.80554      169492.87      19.4076        94           
   3295000   1258089.4      685.42532      1257404        0.24549523     222.66139      296.96704      302.34225      302.3361       306.07094      169421.73     -22.208837      100          
   3296000   1258081.1      675.39649      1257405.7      0.24549523     219.40351      309.32548      298.40736      295.79973      305.78595      169483.65      35.848332      106          
   3297000   1258077.4      677.53721      1257399.8      0.24549523     220.09893      304.09597      297.75206      299.04556      307.53538      169411.15     -32.983157      110          
   3298000   1258082.8      679.99735      1257402.9      0.24549523     220.89811      324.78117      296.34845      303.60595      308.24286      169485.31      44.687059      122          
   3299000   1258078        685.0322       1257392.9      0.24549523     222.53368      296.499        300.38439      304.66511      306.76922      169428.34     -34.770705      127          
   3300000   1258075.1      681.97127      1257393.1      0.24549523     221.53934      289.42385      303.06249      297.31431      305.55531      169486.58      44.329142      116          
   3301000   1258077.1      678.84427      1257398.3      0.24549523     220.52353      312.69978      298.50922      300.27636      304.02071      169427.94     -36.876411      121          
   3302000   1258070.9      673.43695      1257397.4      0.24549523     218.76695      302.17339      296.49314      297.55275      301.3711       169439.05      31.247293      119          
   3303000   1258074.2      679.59573      1257394.6      0.24549523     220.76764      331.69794      299.08245      301.27685      299.3639       169479.34     -15.179898      115          
   3304000   1258076.4      679.48779      1257396.9      0.24549523     220.73258      327.29345      300.97115      297.62079      302.14181      169428.77      5.5783979      110          
   3305000   1258081.4      681.86128      1257399.5      0.24549523     221.50361      310.23782      300.2765       301.29342      304.38996      169489.65      16.280317      104          
   3306000   1258082        681.23929      1257400.7      0.24549523     221.30155      328.65164      299.26759      301.58078      305.01338      169402.85     -28.071448      104          
   3307000   1258079.3      684.24094      1257395.1      0.24549523     222.27665      331.56861      299.8554       304.44644      304.37877      169507.91      48.533226      118          
   3308000   1258086        684.61024      1257401.4      0.24549523     222.39661      312.44835      299.59136      305.32895      305.55602      169390.85     -45.554728      116          
   3309000   1258088.1      683.78969      1257404.3      0.24549523     222.13006      297.74605      301.48895      301.86304      305.08948      169494.86      55.896799      106          
   3310000   1258084        683.39081      1257400.6      0.24549523     222.00048      328.70646      303.26418      298.74002      303.01998      169410.64     -45.387165      104          
   3311000   1258073.7      673.89185      1257399.8      0.24549523     218.91473      277.15325      297.08411      297.47637      301.98527      169470.25      40.114831      105          
   3312000   1258081.3      679.51413      1257401.8      0.24549523     220.74113      277.97556      301.89803      296.90194      302.86968      169481.02     -23.32164       105          
   3313000   1258084.7      675.62258      1257409.1      0.24549523     219.47696      265.39502      299.58524      295.55126      303.41026      169439.53      18.464109      98           
   3314000   1258082.3      685.07081      1257397.2      0.24549523     222.54623      330.98462      302.22902      301.8747       304.80514      169464.97      7.9183071      99           
   3315000   1258081.7      679.18147      1257402.6      0.24549523     220.63307      289.92084      299.2195       299.66223      305.30232      169445.75     -13.031229      97           
   3316000   1258080.9      676.00303      1257404.9      0.24549523     219.60055      315.06168      297.90424      297.61132      304.3309       169487.47      30.740976      94           
   3317000   1258075.7      677.64809      1257398        0.24549523     220.13495      286.30271      297.86052      300.06601      304.85175      169416        -27.623384      94           
   3318000   1258085.7      681.30063      1257404.4      0.24549523     221.32148      273.9446       297.52339      305.76885      302.55909      169457.48      32.184293      92           
   3319000   1258075.9      680.69841      1257395.2      0.24549523     221.12585      261.7633       301.47912      299.84242      300.58742      169445.8      -18.588302      94           
   3320000   1258080.4      679.33744      1257401        0.24549523     220.68373      300.83491      299.15759      301.15316      300.13229      169442.11      18.025161      96           
   3321000   1258075.7      676.78862      1257398.9      0.24549523     219.85575      245.75276      299.58495      297.33304      303.15047      169438.23      3.280945       88           
   3322000   1258083.2      683.96038      1257399.2      0.24549523     222.1855       273.97225      302.54407      300.87223      305.09076      169464.04     -4.4124936      95           
   3323000   1258085.7      685.05969      1257400.7      0.24549523     222.54261      255.81521      300.74448      304.60581      307.10703      169464.52      23.460724      93           
   3324000   1258086.9      680.96366      1257405.9      0.24549523     221.21201      228.56054      302.86589      297.06122      306.09309      169428.72     -24.021819      90           
   3325000   1258080.1      680.90981      1257399.2      0.24549523     221.19452      268.62675      301.75354      298.64857      303.84489      169452.89      42.944305      90           
   3326000   1258084.6      678.14374      1257406.4      0.24549523     220.29596      273.65241      298.09602      301.09581      302.69373      169423.06     -42.302575      93           
   3327000   1258065.8      670.87003      1257395        0.24549523     217.93308      310.53238      296.25116      294.71421      301.06823      169481.49      51.982336      98           
   3328000   1258075.8      677.44387      1257398.3      0.24549523     220.06861      320.78823      300.56382      296.3838       300.14465      169408.47     -42.239212      92           
   3329000   1258084.2      679.17732      1257405.1      0.24549523     220.63172      332.47118      299.57788      299.40738      301.82144      169480.74      40.163705      94           
   3330000   1258077.8      683.07253      1257394.7      0.24549523     221.89708      288.53712      299.48637      304.73771      303.23731      169433.45     -26.241296      95           
   3331000   1258079.6      678.792        1257400.8      0.24549523     220.50655      314.51548      295.81713      304.20795      304.25043      169458.92      21.545374      98           
   3332000   1258084.6      680.8083       1257403.8      0.24549523     221.16155      313.50664      297.1353       304.7098       304.30166      169440.21     -0.92861957     92           
   3333000   1258087        684.81171      1257402.2      0.24549523     222.46206      321.19806      301.08941      303.79254      303.52694      169487.7      -2.4052197      88           
   3334000   1258083.3      681.25819      1257402        0.24549523     221.30769      266.30413      300.71653      300.90325      302.79138      169467.92      17.677349      84           
   3335000   1258077.9      674.60719      1257403.3      0.24549523     219.14711      252.16709      297.12773      298.50723      302.12997      169416.95     -14.740401      85           
   3336000   1258082.8      676.55702      1257406.3      0.24549523     219.78051      307.65401      297.93294      299.26102      300.78918      169498.64      23.290675      94           
   3337000   1258077.1      677.85435      1257399.2      0.24549523     220.20195      304.72489      299.69792      298.0713       301.50839      169413.09     -21.555563      103          
   3338000   1258085.1      683.00766      1257402.1      0.24549523     221.87601      302.66508      300.23799      303.34443      302.65232      169472.92      29.265312      102          
   3339000   1258073.7      677.39345      1257396.3      0.24549523     220.05223      285.33941      296.62883      301.90123      303.54606      169429.06     -21.472463      93           
   3340000   1258080.5      680.94077      1257399.6      0.24549523     221.20458      296.55952      300.6213       299.47314      305.72059      169495.89      28.066752      92           
   3341000   1258072.6      671.19704      1257401.4      0.24549523     218.03932      277.76102      296.36572      294.31721      305.16027      169427.44     -12.215163      87           
   3342000   1258086.3      681.03536      1257405.3      0.24549523     221.23531      296.55414      301.31333      299.13547      303.45863      169450.08      16.023144      89           
   3343000   1258081.6      673.94128      1257407.7      0.24549523     218.93079      287.7643       295.59212      299.82107      301.00392      169429.2      -0.83745557     84           
   3344000   1258086.7      682.10785      1257404.6      0.24549523     221.58371      305.73089      296.70025      308.17046      300.06784      169446.25      3.9094381      85           
   3345000   1258080.8      679.67642      1257401.1      0.24549523     220.79385      284.10643      302.78372      296.59327      299.08759      169469.6       9.7369347      74           
   3346000   1258078.6      676.22814      1257402.4      0.24549523     219.67367      315.67312      298.89633      297.59642      299.92354      169469.2      -15.020526      79           
   3347000   1258086        684.8896       1257401.1      0.24549523     222.48736      315.0476       301.71569      303.52231      301.73485      169454.24      32.36257       82           
   3348000   1258089.9      685.07749      1257404.8      0.24549523     222.5484       284.69683      300.81984      304.88211      304.03261      169415.36     -26.817735      81           
   3349000   1258080.5      681.23824      1257399.2      0.24549523     221.30121      289.11879      299.55804      301.55174      305.84085      169517.06      40.884912      94           
   3350000   1258086.3      684.9702       1257401.3      0.24549523     222.51354      272.55155      304.30757      299.67382      304.12884      169397.85     -33.072562      91           
   3351000   1258074.4      675.87396      1257398.5      0.24549523     219.55862      279.11917      299.82865      295.97395      300.87403      169444.12      38.33963       84           
   3352000   1258080.9      683.08856      1257397.8      0.24549523     221.90229      311.0269       302.1694       301.84592      297.35076      169456.74     -21.524693      84           
   3353000   1258082.9      675.98232      1257406.9      0.24549523     219.59382      323.64254      295.85528      302.10636      298.40882      169448.32      20.420359      82           
   3354000   1258082        679.74241      1257402.3      0.24549523     220.81529      333.97535      300.58924      299.85502      296.93728      169447.05      8.0203224      87           
   3355000   1258087.6      683.74067      1257403.9      0.24549523     222.11413      340.41642      300.24599      304.5441       299.25637      169456.52     -7.7179498      91           
   3356000   1258078.8      679.25761      1257399.6      0.24549523     220.6578       344.82226      298.49155      300.96431      301.6931       169486.31      23.159377      98           
   3357000   1258085.3      684.46013      1257400.9      0.24549523     222.34785      370.83237      303.37258      299.18905      303.16873      169415.98     -17.841735      102          
   3358000   1258091.6      684.3708       1257407.2      0.24549523     222.31883      319.86306      302.12469      301.54256      304.18801      169473.64      31.879689      85           
   3359000   1258079.1      679.79527      1257399.3      0.24549523     220.83246      322.6186       303.35342      294.62714      302.02526      169470.52     -28.364653      73           
   3360000   1258089.4      683.50161      1257405.8      0.24549523     222.03647      340.34929      300.05499      304.82185      298.71937      169431.26      33.424692      78           
   3361000   1258075.8      675.67966      1257400.1      0.24549523     219.4955       305.22048      297.97528      299.28745      296.72886      169431.27     -27.246547      84           
   3362000   1258087.6      683.18192      1257404.4      0.24549523     221.93262      287.93352      303.40185      300.60566      296.67477      169478.28      28.32271       93           
   3363000   1258081.1      677.68009      1257403.5      0.24549523     220.14534      306.02073      298.2375       301.10766      297.92171      169456.81     -16.530471      89           
   3364000   1258069.5      672.09546      1257397.4      0.24549523     218.33117      264.33248      295.2203       298.35444      301.29596      169457.21      13.045073      91           
   3365000   1258078.9      673.70396      1257405.2      0.24549523     218.85369      256.86446      295.3889       300.23172      301.63726      169424.82      6.5560596      90           
   3366000   1258068.2      670.93973      1257397.3      0.24549523     217.95573      258.73684      296.90151      294.16         302.64537      169486.13     -10.455378      92           
   3367000   1258077.2      677.93563      1257399.3      0.24549523     220.22835      274.03047      301.29472      296.26734      301.39205      169432.94      30.046491      92           
   3368000   1258081.7      680.6613       1257401        0.24549523     221.11379      277.01472      300.86276      300.60893      299.72532      169446.92     -27.656243      85           
   3369000   1258074.9      674.07624      1257400.8      0.24549523     218.97463      260.21722      296.59194      299.60478      298.12854      169473.98      47.576975      77           
   3370000   1258086.2      681.31753      1257404.8      0.24549523     221.32697      276.4734       301.15996      301.80623      296.49595      169448.55     -31.3972        75           
   3371000   1258087.7      682.50286      1257405.2      0.24549523     221.71203      313.77971      302.42176      301.07075      296.08827      169450.22      25.901978      76           
   3372000   1258077.9      677.96092      1257400        0.24549523     220.23657      289.74803      298.55717      301.20398      297.57326      169446.06     -10.40556       83           
   3373000   1258079        677.84394      1257401.2      0.24549523     220.19857      313.52582      301.38352      296.2216       298.46603      169467.06      9.0226242      95           
   3374000   1258073.5      673.66538      1257399.8      0.24549523     218.84116      286.23406      299.23749      294.4663       299.3693       169425.02      4.5383494      89           
   3375000   1258077.9      676.80907      1257401.1      0.24549523     219.86239      300.69209      302.81728      292.2554       301.06458      169440.86     -8.8510397      97           
   3376000   1258079.7      680.57304      1257399.1      0.24549523     221.08512      290.78756      299.93068      301.0546       302.47294      169474.65      18.196764      104          
   3377000   1258083.9      680.5182       1257403.4      0.24549523     221.06731      346.52003      299.02962      302.11656      300.04365      169455.03     -9.3827978      98           
   3378000   1258083.1      682.08985      1257401        0.24549523     221.57786      305.64421      301.63741      300.97752      299.22733      169439.02      18.700896      94           
   3379000   1258079.5      675.6093       1257403.9      0.24549523     219.47265      286.73023      298.08085      298.8204       298.49747      169465.25     -10.815057      88           
   3380000   1258086.7      680.86462      1257405.8      0.24549523     221.17984      297.80228      301.55076      299.62163      299.58728      169483.48      12.7436        95           
   3381000   1258078.4      673.41321      1257405        0.24549523     218.75924      315.97958      296.12192      298.16943      300.1828       169418.93      3.06955        105          
   3382000   1258082.9      679.04357      1257403.8      0.24549523     220.58827      305.27684      300.97749      297.53227      301.73232      169484.06     -3.5627742      106          
   3383000   1258078.9      677.37079      1257401.5      0.24549523     220.04487      250.02178      299.84401      297.85984      302.77988      169464.88      4.7089808      107          
   3384000   1258076.6      674.08656      1257402.5      0.24549523     218.97798      257.11565      297.77451      296.99561      302.25154      169449.99      13.198787      113          
   3385000   1258075.7      673.54902      1257402.2      0.24549523     218.80336      261.19954      298.95653      295.11233      300.00252      169409.24     -15.174186      119          
   3386000   1258071.5      672.7604       1257398.8      0.24549523     218.54718      247.70352      298.51389      295.66509      297.54427      169480.97      32.758244      115          
   3387000   1258080.2      678.01271      1257402.2      0.24549523     220.25339      285.92144      300.17426      299.18337      296.60124      169401.71     -25.158035      111          
   3388000   1258074.7      676.16815      1257398.5      0.24549523     219.65419      299.59853      298.5143       299.02949      297.13675      169458.67      30.706402      117          
   3389000   1258074.1      676.44408      1257397.7      0.24549523     219.74382      282.19216      300.08986      297.02085      298.16043      169439.61     -15.547923      105          
   3390000   1258079.3      679.2888       1257400        0.24549523     220.66793      263.47871      301.85222      297.55318      300.65794      169469.29      14.741223      111          
   3391000   1258077.6      677.41045      1257400.2      0.24549523     220.05775      264.36741      295.87179      303.82195      302.13581      169423.27      6.7444854      114          
   3392000   1258080.4      677.3345       1257403.1      0.24549523     220.03308      270.69835      299.35461      298.34407      302.593        169422.68     -15.215381      125          
   3393000   1258080.7      681.45652      1257399.3      0.24549523     221.37212      301.80322      300.29921      301.36695      302.38962      169491.17      34.019122      117          
   3394000   1258080.4      678.31887      1257402.1      0.24549523     220.35285      275.00723      297.21434      303.06629      300.95103      169380.77     -34.946159      113          
   3395000   1258075.2      674.29463      1257400.9      0.24549523     219.04557      275.5733       296.89847      298.89493      299.79216      169515.81      44.882472      115          
   3396000   1258081.2      675.71164      1257405.5      0.24549523     219.50589      281.84017      300.31626      295.49589      299.39359      169431.87     -34.488682      118          
   3397000   1258088.9      681.77903      1257407.1      0.24549523     221.47689      269.64561      301.051        302.13346      299.18519      169476.12      34.074251      118          
   3398000   1258082        676.35818      1257405.6      0.24549523     219.71592      287.11481      301.13025      294.7795       300.09875      169418.16     -16.859075      116          
   3399000   1258083.7      684.87316      1257398.9      0.24549523     222.48202      288.21643      301.15353      304.9532       300.99146      169465.59      8.9640171      112          
   3400000   1258081.8      680.88655      1257400.9      0.24549523     221.18697      291.6962       298.782        303.23532      302.13636      169458.06      8.2204413      109          
   3401000   1258074.6      677.07406      1257397.5      0.24549523     219.94847      304.58437      298.61884      298.47279      302.55588      169432.89     -10.152811      109          
   3402000   1258069.7      673.76822      1257395.9      0.24549523     218.87457      279.21641      296.45053      298.41682      301.35502      169448.02      23.775018      107          
   3403000   1258077.6      680.10346      1257397.5      0.24549523     220.93258      252.34467      297.308        305.50057      300.75756      169442.18     -23.584529      107          
   3404000   1258071.9      676.8411       1257395.1      0.24549523     219.8728       262.63059      299.09476      298.85032      299.97173      169489.16      32.992372      118          
   3405000   1258077.2      676.6388       1257400.6      0.24549523     219.80708      262.70769      296.85944      301.95742      300.02873      169401.28     -27.524218      115          
   3406000   1258080.5      675.98669      1257404.5      0.24549523     219.59524      271.63283      298.31524      298.66693      300.55718      169493.63      26.813059      112          
   3407000   1258072.7      672.56297      1257400.1      0.24549523     218.48304      297.40158      296.47342      296.7053       301.01841      169420.69     -8.2980081      106          
   3408000   1258080.3      679.5005       1257400.8      0.24549523     220.73671      292.28988      299.23372      300.72873      302.76605      169453.78      1.1992284      106          
   3409000   1258075.3      677.13451      1257398.2      0.24549523     219.96811      288.36911      301.19388      294.80544      303.16764      169459.21      19.764285      114          
   3410000   1258080.3      683.9459       1257396.4      0.24549523     222.1808       277.65059      303.27496      300.17184      303.48867      169447.12     -16.894357      117          
   3411000   1258086.9      683.2511       1257403.6      0.24549523     221.95509      307.32634      300.79112      302.8254       302.26948      169463.47      24.971004      118          
   3412000   1258083.7      681.29995      1257402.4      0.24549523     221.32126      305.80977      300.98942      300.97353      299.16629      169415.98     -16.95373       114          
   3413000   1258074.5      673.20805      1257401.3      0.24549523     218.6926       270.54496      296.93684      297.98021      298.36479      169493.99      16.558333      118          
   3414000   1258084.4      685.88835      1257398.5      0.24549523     222.81181      258.06585      303.26303      304.37271      297.92809      169413.59     -1.136851       113          
   3415000   1258090.1      683.98079      1257406.1      0.24549523     222.19214      298.75751      301.56054      304.03961      297.25769      169456.92     -5.0727446      113          
   3416000   1258085.6      681.06233      1257404.5      0.24549523     221.24407      275.44883      300.18698      302.63398      298.36255      169457.64      21.744684      111          
   3417000   1258087.1      680.77242      1257406.3      0.24549523     221.14989      303.78428      300.62071      300.91464      299.15676      169465.48     -24.517472      119          
   3418000   1258081.3      676.54897      1257404.8      0.24549523     219.7779       305.68963      299.99703      296.4686       299.73634      169475.08      38.073887      122          
   3419000   1258076.3      680.9509       1257395.3      0.24549523     221.20787      320.71458      303.10939      296.48607      301.35051      169440.55     -25.828524      123          
   3420000   1258076.3      681.58003      1257394.7      0.24549523     221.41224      306.85759      303.91033      296.2057       301.9212       169468.9       32.266561      108          
   3421000   1258086.6      682.80148      1257403.8      0.24549523     221.80903      303.14837      298.04385      306.9356       300.24913      169430.18     -17.046969      103          
   3422000   1258090.1      681.52884      1257408.6      0.24549523     221.39562      285.59663      302.23404      299.78783      298.83653      169468.79      17.20013       93           
   3423000   1258081.4      674.01652      1257407.4      0.24549523     218.95523      294.96498      297.72017      298.11096      295.42716      169407.7      -1.137201       104          
   3424000   1258081.8      679.60278      1257402.2      0.24549523     220.76993      269.92811      300.34867      301.37873      295.61569      169459.62     -2.9805268      102          
   3425000   1258081.4      681.55833      1257399.9      0.24549523     221.4052       262.54902      298.84419      305.78553      297.04981      169436.82      21.196444      102          
   3426000   1258087.1      683.89386      1257403.2      0.24549523     222.16389      296.45948      301.87635      303.3278       297.94806      169451.35     -23.484002      97           
   3427000   1258075.5      675.54238      1257399.9      0.24549523     219.4509       293.50929      298.73055      297.27625      300.04356      169452.77      35.070756      109          
   3428000   1258084.7      685.00401      1257399.7      0.24549523     222.52453      320.76756      301.30213      304.36127      300.86223      169427.56     -25.309647      114          
   3429000   1258077.8      677.22967      1257400.6      0.24549523     219.99902      337.28923      297.2836       300.74597      299.81899      169504.36      33.6259        124          
   3430000   1258077.3      675.40462      1257401.9      0.24549523     219.40615      327.42294      297.41832      298.45789      300.14831      169442.25     -16.078679      112          
   3431000   1258081.6      676.58965      1257405        0.24549523     219.79111      298.26656      298.00302      299.10653      301.90922      169477.99      13.186713      109          
   3432000   1258075.2      676.60807      1257398.6      0.24549523     219.79709      288.91173      297.38581      300.43275      300.85681      169430.19      6.9982524      101          
   3433000   1258082.6      675.70572      1257406.9      0.24549523     219.50397      294.50416      299.6759       295.84744      300.71932      169470.46     -8.6214078      105          
   3434000   1258077.7      672.88579      1257404.8      0.24549523     218.58791      267.25105      298.08164      295.69391      298.84773      169422.49      26.208432      103          
   3435000   1258075.9      674.38954      1257401.5      0.24549523     219.0764       296.81714      296.80136      298.91125      299.22827      169482.87     -24.260827      90           
   3436000   1258079.3      679.66985      1257399.7      0.24549523     220.79172      327.08043      299.77323      300.3737       299.57787      169451.33      34.781521      99           
   3437000   1258081.7      675.01407      1257406.7      0.24549523     219.27928      291.54132      297.92568      298.08257      299.19018      169414.59     -26.743173      98           
   3438000   1258077        674.11127      1257402.9      0.24549523     218.986        309.43162      299.04622      294.90647      299.61352      169482.41      27.454875      93           
   3439000   1258083.6      675.80195      1257407.8      0.24549523     219.53522      273.81864      300.25074      295.63858      299.94187      169396.4      -16.028864      90           
   3440000   1258071.7      669.41632      1257402.3      0.24549523     217.46084      273.63897      298.71797      290.31191      298.92974      169490.27      16.837061      88           
   3441000   1258078.6      673.24438      1257405.4      0.24549523     218.70439      273.95963      297.74623      296.38933      299.16935      169424.46     -5.361804       86           
   3442000   1258080.6      680.73214      1257399.9      0.24549523     221.13681      256.02772      300.82477      301.47154      298.31964      169499.18      10.934789      89           
   3443000   1258080.5      676.9405       1257403.6      0.24549523     219.90509      246.56988      298.70958      299.92527      299.06251      169431.94     -4.5328261      91           
   3444000   1258075.9      677.9321       1257397.9      0.24549523     220.22721      254.76596      299.26983      299.98251      299.98958      169437.8       4.8988904      95           
   3445000   1258075.6      674.8148       1257400.8      0.24549523     219.21455      270.50585      298.29095      297.5382       299.34899      169504.67      16.975729      91           
   3446000   1258085.4      681.83987      1257403.6      0.24549523     221.49665      296.55121      302.24375      300.03061      299.06357      169417.41     -17.568297      102          
   3447000   1258070.1      675.21574      1257394.9      0.24549523     219.34479      300.03044      297.15499      299.75718      298.04525      169459.4       33.726957      101          
   3448000   1258077.3      681.16298      1257396.1      0.24549523     221.27677      268.08453      303.24948      298.29436      298.16046      169416.97     -21.073938      107          
   3449000   1258071.2      673.93732      1257397.3      0.24549523     218.9295       300.35432      298.29466      296.70786      296.75625      169503.08      18.985243      107          
   3450000   1258083.3      678.46102      1257404.8      0.24549523     220.39903      298.34756      298.39808      302.41244      295.84983      169441.05     -3.6110489      115          
   3451000   1258085.1      678.41289      1257406.6      0.24549523     220.38339      296.79506      301.07912      298.25988      296.10232      169465.73     -2.359362       114          
   3452000   1258079.3      674.33645      1257404.9      0.24549523     219.05916      284.48277      298.96593      296.06078      298.16355      169467.63      21.031732      110          
   3453000   1258085.2      682.2967       1257402.9      0.24549523     221.64505      289.37766      300.9218       302.37144      299.94796      169459.45     -10.510434      113          
   3454000   1258074.3      675.92926      1257398.4      0.24549523     219.57658      316.60949      297.76584      299.0677       298.9355       169466.54      17.950742      120          
   3455000   1258084.7      686.66597      1257398        0.24549523     223.06442      283.50531      302.14839      306.40676      298.47946      169411.47     -8.1597294      112          
   3456000   1258065.2      673.07236      1257392.1      0.24549523     218.64851      284.57422      300.05946      292.86125      298.12815      169475.83      16.392032      114          
   3457000   1258079.1      677.02975      1257402        0.24549523     219.93408      317.91217      296.78812      302.43947      296.78777      169405.8      -3.0747791      112          
   3458000   1258079.5      678.39791      1257401.1      0.24549523     220.37853      275.79581      299.07697      301.71035      295.48698      169487.79      6.3996639      98           
   3459000   1258081.2      682.36009      1257398.8      0.24549523     221.66565      326.53265      301.91905      301.72839      294.56987      169436.13      8.6415063      105          
   3460000   1258076.6      677.96422      1257398.6      0.24549523     220.23764      308.39911      301.7927       296.68707      295.18066      169445.48     -4.1352226      106          
   3461000   1258071.4      671.78171      1257399.6      0.24549523     218.22925      282.24619      298.9681       293.29986      296.86459      169440.14      15.016952      98           
   3462000   1258081.4      678.94788      1257402.5      0.24549523     220.55719      279.55317      298.87706      301.75409      298.88805      169475.69     -6.9408016      98           
   3463000   1258077.6      674.61272      1257403        0.24549523     219.1489       300.40047      299.34371      295.23281      299.51766      169438.12      13.548512      96           
   3464000   1258073.9      676.94568      1257397        0.24549523     219.90677      281.65265      300.34185      296.59569      300.52893      169414.29     -8.994187       91           
   3465000   1258081.2      674.8765       1257406.3      0.24549523     219.23459      309.69508      297.74745      297.9238       299.12549      169505.54      12.63267       95           
   3466000   1258078        679.30032      1257398.7      0.24549523     220.67168      288.60663      297.48891      304.50214      297.48032      169393.01     -3.3417442      88           
   3467000   1258076.8      675.77224      1257401        0.24549523     219.52558      269.68633      297.59342      301.20007      294.33534      169466.86      11.962051      86           
   3468000   1258081.8      683.6278       1257398.2      0.24549523     222.07747      289.5115       302.98607      302.23694      294.87825      169441.27     -0.47850499     96           
   3469000   1258082        675.73523      1257406.3      0.24549523     219.51355      291.8256       296.73898      301.89817      294.86453      169461.68      1.1254676      99           
   3470000   1258082.7      684.13968      1257398.6      0.24549523     222.24375      316.20995      302.98593      302.45247      294.73966      169441.53      15.685442      110          
   3471000   1258075.5      675.7061       1257399.8      0.24549523     219.50409      268.93564      300.25249      296.2329       297.54249      169435.65     -6.2007782      101          
   3472000   1258075.9      678.67302      1257397.2      0.24549523     220.4679       262.7324       298.78263      301.66652      299.30366      169491.37      14.638838      91           
   3473000   1258077.6      677.89437      1257399.7      0.24549523     220.21495      276.61761      299.43279      299.94162      297.74225      169433.27     -3.7032452      89           
   3474000   1258080        676.93343      1257403.1      0.24549523     219.90279      306.17461      298.53161      299.90687      297.19464      169478.52      9.8596978      87           
   3475000   1258084.9      682.72291      1257402.2      0.24549523     221.78351      284.35143      302.76069      301.15497      296.48202      169416.33     -1.504771       86           
   3476000   1258087.6      684.85907      1257402.8      0.24549523     222.47744      275.41683      300.89639      306.4854       297.05013      169501.33      15.386131      87           
   3477000   1258074.3      676.48853      1257397.8      0.24549523     219.75826      287.77927      298.08084      300.06671      297.84261      169411.79     -1.360331       91           
   3478000   1258078.1      674.69289      1257403.4      0.24549523     219.17495      261.74649      296.0684       300.97773      298.65302      169461.37      2.51631        85           
   3479000   1258071.8      676.32394      1257395.4      0.24549523     219.7048       269.15694      297.83128      300.18772      298.9666       169456.18      1.8906131      87           
   3480000   1258079.9      680.69135      1257399.2      0.24549523     221.12355      270.63993      303.53187      296.72606      299.61117      169443.55      2.7210346      81           
   3481000   1258074.2      672.77342      1257401.4      0.24549523     218.5514       310.39288      297.67355      295.46691      299.03515      169468.1       13.5223        83           
   3482000   1258072.7      676.81683      1257395.9      0.24549523     219.86491      304.80504      299.21027      298.24755      298.90574      169448.29     -7.9868893      88           
   3483000   1258072.8      678.54315      1257394.2      0.24549523     220.42571      287.05874      300.73945      298.36989      298.63222      169486.96      19.557455      88           
   3484000   1258068.1      671.30502      1257396.8      0.24549523     218.07439      317.98366      295.22626      297.5707       297.6834       169414.33     -12.950852      99           
   3485000   1258084.4      674.50086      1257409.9      0.24549523     219.11257      288.77752      299.02302      296.50464      296.56071      169472.07      23.783065      97           
   3486000   1258080.9      677.36359      1257403.6      0.24549523     220.04253      292.26864      301.19601      296.09261      299.00528      169427.62     -17.154158      100          
   3487000   1258086.1      683.88475      1257402.2      0.24549523     222.16093      284.37596      303.95583      300.39661      297.82863      169459.45      18.035448      100          
   3488000   1258095.3      685.7384       1257409.6      0.24549523     222.7631       302.52239      303.23562      303.46429      297.85939      169447.23     -6.313431       102          
   3489000   1258082.7      678.04551      1257404.6      0.24549523     220.26405      341.50389      298.9691       300.04923      296.65978      169459.49      10.067801      111          
   3490000   1258083.8      676.05113      1257407.8      0.24549523     219.61617      349.12302      297.28544      299.84594      297.16715      169447.01      5.7778776      113          
   3491000   1258077        677.5044       1257399.5      0.24549523     220.08827      340.64034      299.7954       298.55309      294.93287      169461.15     -4.0250368      115          
   3492000   1258082.3      678.34326      1257404        0.24549523     220.36077      345.42283      298.23056      301.75358      295.36888      169464.1       21.026734      112          
   3493000   1258083.9      676.53796      1257407.4      0.24549523     219.77432      323.34381      300.75037      295.88402      296.42674      169405.98     -14.686564      105          
   3494000   1258078.9      679.13442      1257399.8      0.24549523     220.61778      310.40776      302.57349      296.87463      295.40249      169482.63      26.345755      97           
   3495000   1258079.6      674.23804      1257405.4      0.24549523     219.02719      333.44813      297.98406      297.38588      295.52069      169450.33     -24.849549      95           
   3496000   1258078.5      678.95214      1257399.6      0.24549523     220.55857      321.64475      299.53514      300.85032      296.19783      169460.35      31.60931       94           
   3497000   1258075.7      678.91045      1257396.8      0.24549523     220.54503      336.69336      300.18625      299.55056      296.67394      169419.95     -18.454675      90           
   3498000   1258081.4      678.20051      1257403.2      0.24549523     220.3144       359.60775      297.92345      301.91469      296.08882      169450.2       17.862983      87           
   3499000   1258079.8      677.14301      1257402.6      0.24549523     219.97087      332.14717      296.52262      303.00084      296.23245      169465.08     -2.5854309      84           
   3500000   1258074.7      674.16342      1257400.5      0.24549523     219.00295      300.67814      297.23451      298.64859      296.53622      169370.91     -2.2292201      84           
   3501000   1258075.3      680.29858      1257395.1      0.24549523     220.99596      313.80062      299.07903      303.19966      296.81893      169510.97      21.211455      73           
   3502000   1258068.5      671.6356       1257396.9      0.24549523     218.18178      309.81353      296.72727      296.28362      296.27085      169406.99     -24.886918      70           
   3503000   1258077.8      676.90269      1257400.9      0.24549523     219.8928       285.27318      296.63788      303.29182      295.79855      169449.2       30.546482      70           
   3504000   1258071.9      674.88666      1257397        0.24549523     219.23789      293.20847      294.99027      303.71874      294.03113      169438.69     -19.110714      76           
   3505000   1258083.7      680.50439      1257403.2      0.24549523     221.06282      297.48564      301.17031      300.99288      294.96531      169477.38      21.463334      73           
   3506000   1258086.5      675.31918      1257411.2      0.24549523     219.3784       293.56935      301.01155      294.64639      295.91133      169455.61     -2.1545854      76           
   3507000   1258080.7      677.27261      1257403.4      0.24549523     220.01297      286.79467      301.64856      296.10002      296.16498      169405.71     -2.3726159      74           
   3508000   1258070.4      675.87505      1257394.6      0.24549523     219.55897      281.21291      299.45521      297.47281      297.16002      169503.32      16.848641      71           
   3509000   1258081.9      677.81452      1257404.1      0.24549523     220.18901      287.51015      299.30332      299.53614      298.95718      169416.28     -10.982053      72           
   3510000   1258083.2      674.94822      1257408.3      0.24549523     219.25789      263.22301      297.06337      299.33469      300.23461      169440.39      18.220141      77           
   3511000   1258082.3      679.58445      1257402.8      0.24549523     220.76398      253.91001      300.95494      299.72115      298.94697      169473.32     -9.1661426      78           
   3512000   1258083.9      677.41582      1257406.5      0.24549523     220.05949      261.47033      297.97939      301.9626       296.82342      169450.34      7.5088595      83           
   3513000   1258080        675.89461      1257404.1      0.24549523     219.56533      290.6531       300.42365      296.31799      295.78078      169447.72      9.8674738      88           
   3514000   1258085.2      680.44556      1257404.7      0.24549523     221.04371      287.20982      301.56777      300.29286      295.57203      169429.68     -0.87391562     85           
   3515000   1258079.7      681.12339      1257398.6      0.24549523     221.2639       316.44613      300.89803      301.37049      296.92986      169490.81      18.215704      88           
   3516000   1258080.6      676.71577      1257403.8      0.24549523     219.83208      308.62111      298.88629      298.91416      297.59033      169426.79     -11.849301      85           
   3517000   1258083.9      678.97807      1257404.9      0.24549523     220.56699      315.54179      302.96323      295.29577      298.24783      169457.86      17.610181      87           
   3518000   1258084.4      682.19604      1257402.2      0.24549523     221.61235      314.7929       303.40101      298.33526      299.26295      169477.89     -8.567999       84           
   3519000   1258082        680.06         1257401.9      0.24549523     220.91846      287.89481      298.34333      303.85501      298.67158      169453.82      17.856329      84           
   3520000   1258085.1      678.17727      1257406.9      0.24549523     220.30685      326.78425      298.40496      301.65984      295.71473      169449.44      0.38638351     92           
   3521000   1258079.6      676.09508      1257403.5      0.24549523     219.63045      337.63468      299.89267      297.22551      293.81015      169436.14     -6.6400402      90           
   3522000   1258089.1      684.76019      1257404.3      0.24549523     222.44532      334.69729      302.90002      303.14681      294.94684      169500.45      14.927815      82           
   3523000   1258092.9      683.41409      1257409.5      0.24549523     222.00804      338.09033      303.75615      300.05189      295.54368      169400.39     -10.838062      76           
   3524000   1258085.4      681.35719      1257404.1      0.24549523     221.33985      333.11833      301.91169      300.02754      296.93631      169497.77      17.862957      68           
   3525000   1258086.2      684.66217      1257401.5      0.24549523     222.41348      364.02415      303.92159      300.312        298.05114      169440.25     -16.923944      79           
   3526000   1258079.6      676.54544      1257403.1      0.24549523     219.77675      301.92461      298.23899      298.9626       300.61124      169486.36      25.747484      73           
   3527000   1258084.3      683.39085      1257400.9      0.24549523     222.00049      315.79803      300.59211      303.66969      300.62244      169411.93     -7.0914102      77           
   3528000   1258092.7      685.33786      1257407.3      0.24549523     222.63298      328.99756      302.02852      304.66382      297.38684      169465.02      6.7383412      75           
   3529000   1258086.8      682.08335      1257404.7      0.24549523     221.57575      288.9683       301.82572      301.99473      295.00543      169458.99      18.851907      77           
   3530000   1258087.1      675.42922      1257411.6      0.24549523     219.41414      292.46537      300.49927      296.33374      292.99426      169414.64     -24.705009      82           
   3531000   1258079        672.18268      1257406.8      0.24549523     218.3595       256.42434      296.78628      298.63647      291.98909      169519.11      41.376128      75           
   3532000   1258081        677.6888       1257403.3      0.24549523     220.14817      279.41841      299.68307      300.58306      292.86129      169410.02     -36.100607      82           
   3533000   1258084.2      681.56483      1257402.6      0.24549523     221.40731      285.47883      300.75461      302.91877      295.55397      169463.61      37.13278       84           
   3534000   1258082.3      678.07123      1257404.2      0.24549523     220.27241      307.83737      298.50353      301.11846      297.48416      169423.59     -13.724164      83           
   3535000   1258080.6      680.0424       1257400.6      0.24549523     220.91274      341.65737      299.85275      300.4122       300.19293      169478.24      8.5743568      81           
   3536000   1258083        681.19243      1257401.8      0.24549523     221.28633      293.63237      301.5089       299.63191      301.46645      169431.22      10.807177      80           
   3537000   1258085.4      681.24601      1257404.1      0.24549523     221.30374      277.72362      298.72672      304.62302      299.58061      169428.93     -8.2662463      90           
   3538000   1258081.8      678.35074      1257403.5      0.24549523     220.3632       260.84748      299.98955      300.19579      296.68738      169494.72      15.264059      94           
   3539000   1258091.4      682.30648      1257409.1      0.24549523     221.64823      278.77585      302.84409      300.73667      295.78473      169393.17     -12.94653       86           
   3540000   1258074        675.76689      1257398.3      0.24549523     219.52384      297.66657      300.42669      296.47355      294.2145       169480.95      18.935631      95           
   3541000   1258087.3      680.83421      1257406.4      0.24549523     221.16996      302.12611      301.69266      300.15613      296.36519      169442.62     -11.66844       102          
   3542000   1258082.9      678.29223      1257404.6      0.24549523     220.3442       316.09732      300.61653      297.93627      298.11293      169507.52      18.377425      111          
   3543000   1258075.5      676.51436      1257399        0.24549523     219.76666      298.50272      299.5448       297.15819      300.04777      169413.48     -6.9017338      102          
   3544000   1258086.4      676.84074      1257409.5      0.24549523     219.87268      314.39757      296.57584      301.7795       300.0044       169480.17      11.662775      103          
   3545000   1258084.4      685.53034      1257398.9      0.24549523     222.69551      321.46288      303.84801      301.46841      299.83048      169438.01     -1.2813539      103          
   3546000   1258078.9      677.56342      1257401.3      0.24549523     220.10744      326.61834      299.88748      297.76078      299.13091      169436.46      5.4141385      99           
   3547000   1258091.7      683.2991       1257408.4      0.24549523     221.97069      294.0289       302.64531      301.93026      296.17361      169481.69      8.3272994      88           
   3548000   1258078.2      678.57656      1257399.6      0.24549523     220.43656      291.39803      300.82743      298.7671       296.70446      169445.64     -8.3258607      102          
   3549000   1258081.9      683.77043      1257398.1      0.24549523     222.1238       283.91903      300.66505      305.56598      296.58592      169477.15      19.626152      111          
   3550000   1258087.7      683.81777      1257403.8      0.24549523     222.13918      300.49365      299.77648      306.44918      297.43841      169428.34     -12.337285      103          
   3551000   1258082.3      678.31183      1257404        0.24549523     220.35057      316.30639      299.85204      298.97279      298.75618      169490.74      14.327087      103          
   3552000   1258074.5      679.16556      1257395.4      0.24549523     220.6279       277.18548      298.70098      301.84924      301.03626      169430.97     -1.2290567      118          
   3553000   1258064.5      672.4152       1257392        0.24549523     218.43504      304.76486      296.85644      296.12272      299.74667      169465.89      2.368332       124          
   3554000   1258074.9      677.58116      1257397.3      0.24549523     220.1132       273.54327      301.02164      296.94066      299.14671      169478.64      6.7416994      119          
   3555000   1258077.8      679.59403      1257398.2      0.24549523     220.76709      293.43315      300.32849      300.42089      297.92316      169443.22     -2.5484635      122          
   3556000   1258082.4      682.15248      1257400.2      0.24549523     221.5982       286.20505      304.75063      297.30077      297.01619      169479         11.805203      126          
   3557000   1258078.1      674.88917      1257403.3      0.24549523     219.23871      257.46415      296.58187      301.3017       296.54537      169420.67     -3.3963437      118          
   3558000   1258074.1      677.29291      1257396.8      0.24549523     220.01957      280.73148      299.5397       299.38707      296.57906      169505.24      11.703751      126          
   3559000   1258090.2      680.75317      1257409.5      0.24549523     221.14364      257.96519      300.56237      302.09139      298.28789      169415.39     -3.9075783      123          
   3560000   1258086.4      684.23678      1257402.2      0.24549523     222.27529      249.65267      303.30058      302.22446      299.23849      169486.26      6.8961736      130          
   3561000   1258077.2      681.29027      1257395.9      0.24549523     221.31812      248.02093      304.7917       295.86834      301.12475      169447.09      5.5703169      125          
   3562000   1258082.6      679.30331      1257403.3      0.24549523     220.67265      301.32372      297.91521      303.04523      299.83588      169431.39     -2.7222581      118          
   3563000   1258082.9      679.07404      1257403.8      0.24549523     220.59817      296.35239      298.24041      302.74166      298.28112      169470.08      10.703571      119          
   3564000   1258075.5      676.96661      1257398.6      0.24549523     219.91357      262.23944      299.68109      298.94407      297.24698      169411.1      -1.9017886      122          
   3565000   1258071.5      674.57293      1257396.9      0.24549523     219.13598      267.11888      298.09242      298.57046      296.03905      169492.35      9.6471766      113          
   3566000   1258072.8      673.45992      1257399.4      0.24549523     218.77441      320.51172      294.94934      301.64598      293.43807      169427.94      3.6880396      117          
   3567000   1258073        670.24062      1257402.7      0.24549523     217.72862      298.97893      294.71868      298.19727      294.21125      169456.77      1.2663242      114          
   3568000   1258070.9      672.55819      1257398.4      0.24549523     218.48148      277.53017      296.77922      297.80674      296.27299      169434.77      13.674812      108          
   3569000   1258074.9      678.38356      1257396.5      0.24549523     220.37387      268.21704      298.257        302.59471      297.40058      169462.8      -6.3475378      105          
   3570000   1258077.4      675.49802      1257401.9      0.24549523     219.43649      293.70261      297.03708      300.64217      296.63164      169450.71      19.397511      105          
   3571000   1258085.8      681.94879      1257403.9      0.24549523     221.53204      256.35786      300.14023      304.4315       297.18869      169440.2      -11.271899      111          
   3572000   1258083.6      679.16296      1257404.4      0.24549523     220.62705      272.79187      299.43812      301.42162      298.47545      169498.59      19.951489      114          
   3573000   1258088.7      686.70944      1257402        0.24549523     223.07854      277.96456      303.95468      304.21335      297.08174      169402.27     -13.282727      114          
   3574000   1258076.1      672.96802      1257403.2      0.24549523     218.61462      307.58285      299.00666      294.62266      295.60019      169478.24      14.807241      110          
   3575000   1258088.7      679.19546      1257409.5      0.24549523     220.63761      299.20452      301.5278       298.81634      294.74861      169455.42     -3.0371266      109          
   3576000   1258082        678.15055      1257403.8      0.24549523     220.29817      342.52705      299.83825      299.37931      294.48678      169479.03      1.7791034      117          
   3577000   1258085.5      678.53645      1257406.9      0.24549523     220.42353      318.87001      297.53596      303.53335      295.33949      169428.43      12.9714        113          
   3578000   1258079.2      679.7294       1257399.4      0.24549523     220.81106      286.31206      299.71348      302.13427      296.016        169460.19     -11.102393      110          
   3579000   1258081.1      679.14132      1257401.9      0.24549523     220.62002      322.38804      296.53356      305.28354      297.09666      169473.93      19.420072      110          
   3580000   1258076.9      682.28799      1257394.6      0.24549523     221.64222      325.23208      297.65813      307.08732      298.282        169416.7      -15.748295      113          
   3581000   1258075.7      675.73189      1257400        0.24549523     219.51247      328.52656      298.30031      297.58018      299.88007      169513.13      26.833661      113          
   3582000   1258085.9      685.79891      1257400.1      0.24549523     222.78275      336.09545      302.52868      303.41089      300.10744      169424.53     -18.896784      112          
   3583000   1258081.4      679.40051      1257402        0.24549523     220.70422      321.64472      298.29645      301.6865       301.8733       169499.75      14.318397      116          
   3584000   1258076.8      679.17041      1257397.6      0.24549523     220.62948      320.95638      299.12026      300.58399      300.39156      169405.22      8.8007884      114          
   3585000   1258082.2      678.69817      1257403.5      0.24549523     220.47607      282.27165      300.23776      299.355        298.96052      169467.42     -7.5524475      104          
   3586000   1258077.9      675.87134      1257402        0.24549523     219.55777      307.54316      296.32961      301.86715      296.94822      169451.82      19.369677      109          
   3587000   1258081.2      678.3026       1257402.9      0.24549523     220.34757      257.77186      301.56378      297.7539       297.19652      169432.29     -16.621157      106          
   3588000   1258076.3      670.3374       1257406        0.24549523     217.76006      270.44197      296.09591      295.23823      299.99379      169487.8       38.808898      107          
   3589000   1258084        680.28839      1257403.7      0.24549523     220.99265      302.52151      299.06057      302.0605       301.40359      169425.49     -27.846608      114          
   3590000   1258087.6      683.5005       1257404.1      0.24549523     222.03611      288.82416      299.76119      304.7613       303.1901       169469.42      31.110205      108          
   3591000   1258077.9      680.56895      1257397.3      0.24549523     221.08379      298.9792       301.72613      297.90282      303.5765       169421.4      -18.643746      111          
   3592000   1258085.6      682.27496      1257403.3      0.24549523     221.63799      296.86829      297.2104       306.9222       303.39878      169466.12      19.773716      119          
   3593000   1258087.7      683.57011      1257404.1      0.24549523     222.05872      295.75005      302.25828      301.51921      301.04469      169449.41     -7.5444062      102          
   3594000   1258080.9      680.5742       1257400.3      0.24549523     221.0855       322.59549      300.71333      300.49038      298.36398      169436.86      3.6668817      92           
   3595000   1258083.1      680.64007      1257402.5      0.24549523     221.1069       298.64689      300.98092      300.85737      297.11808      169458.74      10.186074      96           
   3596000   1258084.8      682.81521      1257401.9      0.24549523     221.81349      286.92553      303.20453      299.80611      299.21436      169443.42     -11.185086      101          
   3597000   1258084.9      680.85721      1257404.1      0.24549523     221.17743      278.89644      299.53919      302.85231      299.84516      169444.43      26.297341      95           
   3598000   1258078.1      683.04407      1257395        0.24549523     221.88784      300.45908      299.04843      305.67145      300.77529      169424.18     -24.2076        87           
   3599000   1258082.1      683.63497      1257398.4      0.24549523     222.07979      288.93477      303.35064      299.45398      303.29677      169482.6       26.834387      89           
   3600000   1258077        678.45488      1257398.6      0.24549523     220.39703      329.02564      302.28757      293.96121      303.80962      169452.64     -18.862275      95           
   3601000   1258083.7      679.51191      1257404.2      0.24549523     220.74041      311.95505      299.20142      300.28481      303.30288      169468.96      18.750942      101          
   3602000   1258080        678.83181      1257401.2      0.24549523     220.51948      338.59911      302.70783      294.4256       301.02791      169444.85     -6.2358108      101          
   3603000   1258083.9      684.13003      1257399.7      0.24549523     222.24061      346.16377      305.24227      297.77326      297.60362      169486.56      4.3095118      110          
   3604000   1258089.1      684.40611      1257404.7      0.24549523     222.3303       298.83164      301.71517      304.30652      297.34307      169426.21      7.7607393      112          
   3605000   1258085.5      676.96402      1257408.5      0.24549523     219.91273      313.31777      297.74953      300.79036      297.4489       169432.45     -5.1233688      116          
   3606000   1258080.4      676.45305      1257404        0.24549523     219.74674      312.10845      300.14744      296.06757      299.51214      169467.93      23.18993       118          
   3607000   1258085.9      684.0116       1257401.9      0.24549523     222.20214      260.59436      301.62213      303.11484      303.25516      169436.98     -18.287794      117          
   3608000   1258078.7      678.31416      1257400.4      0.24549523     220.35132      292.32025      298.42644      300.38702      303.08409      169455.62      29.471526      124          
   3609000   1258076.6      679.71163      1257396.9      0.24549523     220.80529      294.03537      298.66024      301.00197      305.62198      169436.91     -20.323052      117          
   3610000   1258075        677.76885      1257397.2      0.24549523     220.17418      294.73154      298.7329       298.93798      304.10207      169474.28      21.7931        121          
   3611000   1258086.2      688.78956      1257397.4      0.24549523     223.75427      287.1967       304.61623      304.22219      302.36508      169473.29     -6.8408206      114          
   3612000   1258070.4      678.27662      1257392.1      0.24549523     220.33913      315.03575      301.36827      296.30568      300.03646      169445.11      12.521929      108          
   3613000   1258069.9      667.95573      1257401.9      0.24549523     216.98637      285.71236      293.6771       296.2591       297.69694      169432.53      1.5318238      106          
   3614000   1258076.2      681.02102      1257395.2      0.24549523     221.23065      293.62064      296.44265      308.24228      297.02478      169455.28     -6.7436256      97           
   3615000   1258080.2      678.23416      1257401.9      0.24549523     220.32533      266.76807      300.48397      298.90385      298.03176      169464.65      15.749119      109          
   3616000   1258075.5      678.05965      1257397.4      0.24549523     220.26864      310.69164      300.20772      297.85848      299.98477      169441.84     -10.397039      116          
   3617000   1258074.7      678.21774      1257396.5      0.24549523     220.32         299.61331      299.35911      299.00467      301.98221      169457.08      18.327002      108          
   3618000   1258073.3      676.63435      1257396.6      0.24549523     219.80563      282.90553      296.91213      300.38109      304.23429      169442.64     -13.577163      94           
   3619000   1258082.5      685.89797      1257396.6      0.24549523     222.81493      243.87275      304.50423      300.55362      305.68616      169442.67      20.46183       95           
   3620000   1258091        681.55107      1257409.4      0.24549523     221.40284      267.55248      298.30943      304.33616      305.08643      169441.68     -8.6510005      100          
   3621000   1258088.7      683.10889      1257405.6      0.24549523     221.90889      292.38348      301.62336      301.23388      303.60093      169481.69      10.468268      97           
   3622000   1258080.5      680.71462      1257399.8      0.24549523     221.13112      263.2838       300.99555      300.17878      301.97248      169445.36     -2.7202028      99           
   3623000   1258077.8      678.17726      1257399.6      0.24549523     220.30685      319.8206       299.47577      298.73944      300.87617      169449.18      8.8439347      104          
   3624000   1258080.1      679.61767      1257400.5      0.24549523     220.77477      306.76167      298.55713      302.17793      300.63514      169477.12     -0.45358323     96           
   3625000   1258087.5      677.45128      1257410.1      0.24549523     220.07101      278.6711       299.03328      299.27233      300.41876      169457.02      5.2410409      94           
   3626000   1258077.3      677.49409      1257399.8      0.24549523     220.08492      297.25596      299.01513      299.31078      299.55417      169406.66     -1.7717432      101          
   3627000   1258080.4      678.94085      1257401.5      0.24549523     220.5549       291.55355      301.14163      298.51204      297.57825      169473.05      5.1400963      109          
   3628000   1258078.7      678.53505      1257400.2      0.24549523     220.42308      320.5396       301.78262      296.71814      296.73487      169447.85      3.648413       112          
   3629000   1258072.6      670.67881      1257401.9      0.24549523     217.87097      305.2824       296.1551       295.37799      298.46159      169439.67      0.20744047     115          
   3630000   1258085.2      682.17978      1257403.1      0.24549523     221.60707      316.10935      301.02807      301.95456      298.61454      169452.05      8.5786465      115          
   3631000   1258088.2      682.16581      1257406        0.24549523     221.60254      324.45785      301.74048      300.35485      299.93953      169475.37      0.13741348     118          
   3632000   1258083.5      678.04826      1257405.4      0.24549523     220.26494      333.29238      299.41583      298.34769      300.97318      169415.66      4.1246442      119          
   3633000   1258081.3      680.27804      1257401        0.24549523     220.98929      329.2361       298.05593      303.0829       301.66451      169438.71     -4.1066958      107          
   3634000   1258084.6      687.42876      1257397.1      0.24549523     223.31221      311.18163      302.16282      305.88986      302.14252      169500.24      21.294922      98           
   3635000   1258071.6      674.53387      1257397.1      0.24549523     219.12329      291.6157       302.45922      290.30883      300.5948       169450.52     -17.941812      105          
   3636000   1258078.3      676.26631      1257402        0.24549523     219.68607      288.16079      298.48766      298.41069      300.81353      169432.55      31.232353      104          
   3637000   1258075.2      675.81924      1257399.4      0.24549523     219.54084      292.26212      298.15039      299.00377      298.14824      169469.79     -15.057619      102          
   3638000   1258088.8      682.82102      1257406        0.24549523     221.81538      302.69787      303.33265      299.78048      297.63939      169426.81      20.14287       109          
   3639000   1258088.4      678.88772      1257409.5      0.24549523     220.53764      332.53333      300.30507      298.95633      297.68673      169449.11     -3.633209       112          
   3640000   1258088.9      687.1402       1257401.8      0.24549523     223.21847      320.00138      305.78076      300.72663      299.06294      169486.67      5.8682338      113          
   3641000   1258081.2      683.2591       1257397.9      0.24549523     221.95769      301.88717      302.86742      300.30933      300.55915      169406.85      2.1723757      110          
   3642000   1258073.6      682.78424      1257390.8      0.24549523     221.80343      351.51401      301.79459      300.18123      301.3479       169479.7       7.197855       116          
   3643000   1258078.6      678.16358      1257400.4      0.24549523     220.3024       313.58988      297.92015      301.30072      300.42252      169410.68     -8.8161406      107          
   3644000   1258080.4      676.99297      1257403.4      0.24549523     219.92213      305.64838      297.58057      300.30943      301.21379      169506.87      27.846201      100          
   3645000   1258088.9      683.48959      1257405.4      0.24549523     222.03257      274.03478      301.13967      303.56326      300.74047      169411.86     -23.970573      98           
   3646000   1258084.2      681.4358       1257402.8      0.24549523     221.36539      263.76936      302.22654      299.48532      300.88293      169465.97      31.763023      102          
   3647000   1258083.9      679.58523      1257404.3      0.24549523     220.76423      279.13086      300.51256      299.68108      300.43207      169431.54     -17.186589      97           
   3648000   1258088.1      681.96422      1257406.2      0.24549523     221.53705      265.49911      301.834        300.53461      301.51131      169463.04      19.181712      96           
   3649000   1258080.7      677.71709      1257403        0.24549523     220.15736      311.89434      298.14487      300.04387      301.94873      169441.66     -5.7821391      90           
   3650000   1258083.7      680.57362      1257403.2      0.24549523     221.08531      276.96247      301.20432      299.17997      302.73435      169434.92      2.2089859      85           
   3651000   1258091.2      687.24362      1257404        0.24549523     223.25207      279.00698      302.36482      305.47693      303.39014      169466.38      18.827405      86           
   3652000   1258081.5      677.71967      1257403.7      0.24549523     220.1582       295.54371      299.75287      297.66082      302.67312      169432.28     -24.865866      85           
   3653000   1258086.5      678.39923      1257408.1      0.24549523     220.37896      277.42852      300.76485      297.1587       302.8126       169458.97      42.408101      80           
   3654000   1258080.5      679.60886      1257400.9      0.24549523     220.77191      284.1212       302.0551       296.3781       303.78487      169413.46     -40.011687      87           
   3655000   1258077.9      681.03715      1257396.9      0.24549523     221.23589      317.62375      302.31721      297.328        303.54646      169471.67      53.913793      97           
   3656000   1258078.2      676.53353      1257401.7      0.24549523     219.77288      267.56766      296.87776      300.93725      303.12076      169448.56     -43.329744      95           
   3657000   1258085.1      679.29913      1257405.8      0.24549523     220.67129      285.81427      298.1628       302.32018      302.01801      169475.21      39.860921      103          
   3658000   1258077.1      675.2705       1257401.9      0.24549523     219.36258      308.42327      296.90239      299.04069      301.50999      169420.31     -23.063315      95           
   3659000   1258074.3      677.03019      1257397.3      0.24549523     219.93422      292.91633      299.53151      297.37238      302.11252      169462.89      17.023867      102          
   3660000   1258067.1      670.55018      1257396.6      0.24549523     217.82918      318.58316      294.36738      296.85708      301.6923       169429.28      12.277389      106          
   3661000   1258073.4      669.56935      1257403.8      0.24549523     217.51056      286.24287      295.92004      293.46368      303.01179      169477.35     -15.688315      95           
   3662000   1258069.3      669.50183      1257399.8      0.24549523     217.48862      268.91124      293.94058      296.50404      303.38923      169463.57      34.646368      96           
   3663000   1258067.6      674.38938      1257393.2      0.24549523     219.07635      276.2671       297.5835       297.31153      302.118        169461.75     -34.042951      100          
   3664000   1258074.7      674.49763      1257400.2      0.24549523     219.11152      279.80482      298.75948      295.64845      301.89483      169465.19      44.126066      99           
   3665000   1258081.2      680.28081      1257400.9      0.24549523     220.99019      322.53135      299.03006      301.2387       303.57574      169425.59     -35.38798       104          
   3666000   1258085.4      684.63995      1257400.8      0.24549523     222.40626      329.25561      297.65133      308.09252      305.41351      169473.3       34.802714      100          
   3667000   1258083.9      681.94629      1257401.9      0.24549523     221.53123      310.31665      299.60658      301.87474      306.42976      169442.31     -16.931313      101          
   3668000   1258082.3      684.90133      1257397.4      0.24549523     222.49117      307.01102      302.94424      300.28656      307.24155      169484.41      17.680124      98           
   3669000   1258077.9      680.2659       1257397.6      0.24549523     220.98535      276.59843      301.89201      296.45848      308.07346      169408.69      0.14401091     100          
   3670000   1258088.2      684.77613      1257403.4      0.24549523     222.4505       296.58866      298.8191       306.45005      307.36085      169447.25     -5.4638681      90           
   3671000   1258073.1      679.62361      1257393.5      0.24549523     220.7767       315.0769       298.4149       300.69818      306.48512      169459.92      23.761119      87           
   3672000   1258084.7      679.12165      1257405.6      0.24549523     220.61363      302.75992      301.69041      295.38092      306.33966      169441.81     -17.257029      78           
   3673000   1258085.5      684.37696      1257401.1      0.24549523     222.32083      291.85984      301.58358      302.37472      305.46584      169465.79      16.235747      75           
   3674000   1258091        683.36143      1257407.7      0.24549523     221.99093      305.08791      300.71512      302.30572      305.35764      169453.39     -14.071718      75           
   3675000   1258076.4      679.07578      1257397.3      0.24549523     220.59873      323.67636      300.99769      295.99606      306.83883      169443.7       13.847708      74           
   3676000   1258086.5      680.52211      1257406        0.24549523     221.06858      321.8821       300.53711      298.21173      307.8167       169449.47      4.4725306      80           
   3677000   1258085        681.31251      1257403.7      0.24549523     221.32534      314.24508      299.73996      300.2867       308.51912      169459.69     -9.5657863      84           
   3678000   1258077.8      670.01809      1257407.8      0.24549523     217.65633      251.89328      293.18139      296.68293      309.96504      169439.71      28.468972      82           
   3679000   1258082.5      682.76759      1257399.8      0.24549523     221.79803      266.51868      298.82519      303.58067      310.32996      169438.58     -22.496709      91           
   3680000   1258077.9      675.28769      1257402.6      0.24549523     219.36817      286.8888       296.95634      296.43699      312.28331      169457.66      31.265439      85           
   3681000   1258093        687.96214      1257405        0.24549523     223.48548      254.3201       303.29122      302.52607      313.56572      169445.89     -22.383625      81           
   3682000   1258086.1      686.35411      1257399.7      0.24549523     222.96311      244.86732      302.5101       301.53832      314.65414      169462.51      19.051065      79           
   3683000   1258084.3      684.71395      1257399.6      0.24549523     222.4303       266.94315      299.52109      303.77699      314.30893      169427.81      0.17121631     78           
   3684000   1258087.1      679.59649      1257407.5      0.24549523     220.76789      310.2282       298.1799       299.44892      312.72354      169447.87     -8.2929085      78           
   3685000   1258074.3      677.80476      1257396.5      0.24549523     220.18584      334.07413      300.20623      294.09712      311.97119      169468.11      30.633565      81           
   3686000   1258083.2      679.91001      1257403.3      0.24549523     220.86974      368.01256      300.59399      296.08025      310.52634      169457.99     -34.231961      78           
   3687000   1258084.2      684.61333      1257399.6      0.24549523     222.39762      374.51903      297.72323      306.33777      309.72193      169432.88      54.170019      84           
   3688000   1258096.1      690.79203      1257405.3      0.24549523     224.40478      315.55066      303.65797      306.01262      308.49107      169480.2      -51.22289       90           
   3689000   1258082.5      680.99636      1257401.5      0.24549523     221.22264      303.27163      300.46465      298.94828      308.75884      169453.27      44.828603      96           
   3690000   1258088.4      688.75753      1257399.7      0.24549523     223.74387      302.32528      300.48824      308.09388      309.99884      169446.97     -19.94966       97           
   3691000   1258090.7      681.7418       1257408.9      0.24549523     221.4648       284.43804      301.91469      297.3118       311.01267      169483.14      14.992512      94           
   3692000   1258097.7      684.91632      1257412.8      0.24549523     222.49604      303.83631      302.69836      299.93216      310.18277      169437.17      7.3730049      98           
   3693000   1258086.2      680.39659      1257405.8      0.24549523     221.0278       317.20233      300.2766       298.09365      309.00218      169463.1      -9.722008       103          
   3694000   1258083.9      681.79697      1257402.1      0.24549523     221.48272      286.38607      302.59312      296.65097      309.62385      169430.47      24.17961       97           
   3695000   1258075.4      679.65847      1257395.8      0.24549523     220.78802      267.5966       303.7876       292.61268      309.59224      169499.12     -13.564476      102          
   3696000   1258071.7      679.78005      1257392        0.24549523     220.82752      289.63178      298.48618      299.99318      311.02613      169434.31      17.331996      99           
   3697000   1258082.7      684.36348      1257398.4      0.24549523     222.31645      291.97521      300.70959      301.38368      314.16039      169464.92     -2.8428432      94           
   3698000   1258078.7      683.97365      1257394.8      0.24549523     222.18982      310.77303      301.33954      299.55121      314.70634      169475.37      7.546577       96           
   3699000   1258074.8      679.17665      1257395.6      0.24549523     220.6315       338.19737      297.0165       299.78402      314.50091      169432.42      11.65799       99           
   3700000   1258080.2      681.0014       1257399.2      0.24549523     221.22427      306.21494      299.41301      298.79117      314.9017       169463.06     -17.858467      109          
   3701000   1258084.6      689.8195       1257394.8      0.24549523     224.08885      294.70497      301.39723      307.10165      314.09452      169478.94      34.127224      110          
   3702000   1258072.5      679.67541      1257392.9      0.24549523     220.79353      332.94624      299.61092      297.59072      310.73662      169434.48     -25.566956      117          
   3703000   1258082.1      684.2834       1257397.8      0.24549523     222.29044      327.59939      300.93967      301.1663       311.14118      169450.28      25.072719      119          
   3704000   1258088.3      683.90316      1257404.4      0.24549523     222.16691      340.56338      300.89632      300.48004      311.75317      169437.88     -3.8448881      116          
   3705000   1258075.9      673.40626      1257402.5      0.24549523     218.75698      328.19518      295.69991      295.10059      313.05796      169448.06      0.049281418    110          
   3706000   1258085.9      681.9082       1257404        0.24549523     221.51885      326.45419      298.0518       301.66247      314.85308      169437.5       12.977597      106          
   3707000   1258075        680.43691      1257394.6      0.24549523     221.0409       286.05466      298.53162      299.01223      318.0509       169433.79     -7.2315021      116          
   3708000   1258080.8      676.20834      1257404.6      0.24549523     219.66724      274.21204      296.529        296.80141      318.75962      169477         21.636218      105          
   3709000   1258084.3      684.08927      1257400.2      0.24549523     222.22737      276.06878      297.91424      304.63539      317.39857      169416.94     -18.625665      99           
   3710000   1258083        680.29346      1257402.7      0.24549523     220.9943       299.32369      298.13765      299.45079      317.14025      169499.4       29.262162      97           
   3711000   1258089.6      685.94075      1257403.6      0.24549523     222.82883      309.60162      301.61209      301.35739      315.55093      169437.15     -18.898105      100          
   3712000   1258081.5      681.59421      1257399.9      0.24549523     221.41685      295.47002      299.8717       299.28754      313.92044      169465.34      24.416231      101          
   3713000   1258086        681.10277      1257404.9      0.24549523     221.25721      317.06621      297.40319      302.45277      312.59092      169439        -11.143635      112          
   3714000   1258082.9      682.13445      1257400.8      0.24549523     221.59235      332.39405      299.35626      300.47465      312.87396      169453.78      8.5605975      111          
   3715000   1258072.6      680.92989      1257391.7      0.24549523     221.20105      290.91728      297.70882      301.20486      316.21738      169471.59      11.258426      103          
   3716000   1258076.8      679.10838      1257397.7      0.24549523     220.60933      295.16708      296.5689       300.27388      317.4711       169426.09     -11.37299       104          
   3717000   1258076.3      681.20352      1257395.1      0.24549523     221.28993      284.32809      300.30057      297.42283      317.18314      169468.56      23.378473      95           
   3718000   1258075.1      675.06992      1257400.1      0.24549523     219.29743      302.72749      294.49888      298.64206      315.99052      169446.37     -17.584709      92           
   3719000   1258082        682.41858      1257399.6      0.24549523     221.68465      298.9874       297.00514      304.4152       314.32816      169453.05      25.800838      87           
   3720000   1258088.6      687.54774      1257401.1      0.24549523     223.35086      322.91827      301.2814       304.35139      312.84462      169458.99     -16.701965      92           
   3721000   1258084.4      678.37712      1257406.1      0.24549523     220.37177      320.11247      297.94477      298.11284      312.87879      169431.23      17.834659      102          
   3722000   1258085.3      679.90727      1257405.4      0.24549523     220.86885      302.07456      297.7952       300.97504      311.13465      169480.09     -4.9322415      105          
   3723000   1258088.1      686.99267      1257401.1      0.24549523     223.17055      299.53533      304.94564      298.87797      311.52886      169446.33      6.4697891      109          
   3724000   1258078.3      679.00162      1257399.3      0.24549523     220.57464      318.07915      296.27189      301.9962       310.7212       169485.88      2.1511615      106          
   3725000   1258087.6      686.43626      1257401.1      0.24549523     222.9898       295.13497      300.09067      305.28293      312.3868       169452.93     -2.1654622      98           
   3726000   1258083.4      677.08955      1257406.3      0.24549523     219.9535       310.07172      296.79877      298.4833       312.61877      169445.73      17.370458      102          
   3727000   1258083        675.47263      1257407.6      0.24549523     219.42825      297.17784      295.67356      297.90867      314.47419      169418.62     -14.597941      105          
   3728000   1258077        680.45449      1257396.6      0.24549523     221.04661      278.52845      298.77463      300.06439      313.12489      169450.99      23.334146      105          
   3729000   1258088.3      687.05845      1257401.2      0.24549523     223.19191      303.61226      303.83244      300.16117      312.90165      169463.48     -9.3279434      110          
   3730000   1258076.7      676.43182      1257400.3      0.24549523     219.73984      290.22168      297.90587      296.53814      311.95469      169459.93      12.650827      112          
   3731000   1258085.6      683.9141       1257401.6      0.24549523     222.17047      298.9896       297.58857      306.20308      311.69681      169440.25      1.800963       110          
   3732000   1258091.1      681.94114      1257409.2      0.24549523     221.52955      302.12049      299.32915      301.34246      310.48456      169424.93     -4.0867924      107          
   3733000   1258082.6      680.25277      1257402.4      0.24549523     220.98108      272.67808      300.09483      298.94783      308.96582      169464.79      22.00183       96           
   3734000   1258079.9      678.1981       1257401.7      0.24549523     220.31362      297.05383      300.2705       295.57973      309.79854      169442.88     -17.501916      102          
   3735000   1258085.3      685.72323      1257399.6      0.24549523     222.75817      320.68746      301.85115      302.20572      309.29963      169482.08      17.038411      103          
   3736000   1258092.8      686.6232       1257406.2      0.24549523     223.05053      316.14016      303.38225      300.61234      311.07522      169441.19     -7.1994689      103          
   3737000   1258082.5      678.93016      1257403.6      0.24549523     220.55143      287.02524      299.42763      297.57316      311.11028      169479.07      15.959492      105          
   3738000   1258079.1      675.91733      1257403.2      0.24549523     219.57271      291.22197      300.95528      291.1264       312.51162      169443.33     -4.0999157      99           
   3739000   1258090.3      681.5471       1257408.8      0.24549523     221.40155      294.34016      297.59938      303.19449      311.79642      169442.42      11.190984      102          
   3740000   1258084.7      685.84612      1257398.9      0.24549523     222.79809      328.63316      301.31176      302.77159      310.32748      169451.45      1.6743113      102          
   3741000   1258083.2      679.52806      1257403.7      0.24549523     220.74566      308.00777      299.25154      298.46355      310.21135      169428.87     -3.5123617      104          
   3742000   1258088.2      683.74338      1257404.4      0.24549523     222.11501      278.68595      298.15854      305.75963      310.16168      169472.49      16.351369      99           
   3743000   1258074.8      675.26871      1257399.5      0.24549523     219.362        307.15726      297.81871      295.73197      308.93496      169407.62     -14.077451      103          
   3744000   1258086.3      681.87093      1257404.4      0.24549523     221.50674      299.34701      303.9007       294.53218      309.99973      169491.71      41.735376      94           
   3745000   1258086.1      684.24899      1257401.8      0.24549523     222.27926      323.02299      302.35375      299.45489      310.00389      169435.02     -27.459978      84           
   3746000   1258073.2      675.50643      1257397.7      0.24549523     219.43923      329.57932      295.10702      299.19678      311.15372      169469.72      34.595928      88           
   3747000   1258082.2      679.24357      1257403        0.24549523     220.65324      310.02629      297.3776       300.25342      312.62713      169446.58     -19.561842      86           
   3748000   1258089.3      680.1808       1257409.1      0.24549523     220.9577       274.07217      299.61437      297.99387      314.50279      169462.35     -2.9360832      81           
   3749000   1258084.5      683.62084      1257400.9      0.24549523     222.0752       312.52214      299.44065      302.44699      312.77756      169450.24      20.877705      78           
   3750000   1258071.6      672.87267      1257398.7      0.24549523     218.58365      316.85332      294.56231      296.8046       312.05557      169439.89     -24.168456      71           
   3751000   1258083.8      682.96034      1257400.9      0.24549523     221.86064      289.1333       298.75897      302.82227      313.17841      169475.33      38.432814      71           
   3752000   1258082.9      681.86316      1257401.1      0.24549523     221.50422      311.04366      297.43555      303.24377      313.23957      169400.3      -34.303451      78           
   3753000   1258083.7      683.82011      1257399.9      0.24549523     222.13994      285.22886      298.03106      304.53704      315.11674      169478.33      43.618689      80           
   3754000   1258090.7      682.79135      1257407.9      0.24549523     221.80574      308.62223      299.12987      300.93325      316.6031       169458.15     -30.565789      83           
   3755000   1258089.5      688.25827      1257401.2      0.24549523     223.58168      305.73667      304.2164       299.66671      317.91644      169457.61      33.692768      77           
   3756000   1258077.9      682.92379      1257395        0.24549523     221.84877      320.32598      300.28832      299.34085      315.95736      169432.54     -16.098688      78           
   3757000   1258080.9      686.32632      1257394.5      0.24549523     222.95408      308.64698      300.79031      303.63883      313.38682      169485.51      14.822306      77           
   3758000   1258092.6      688.92679      1257403.7      0.24549523     223.79885      322.74612      300.22264      307.85619      312.11134      169420.16      4.1837656      81           
   3759000   1258084.5      683.68063      1257400.8      0.24549523     222.09463      282.28266      301.28108      300.39945      311.65071      169472.37     -4.5007838      81           
   3760000   1258083.2      683.99532      1257399.2      0.24549523     222.19685      285.84484      301.88892      299.7894       312.15299      169468.59      23.778576      92           
   3761000   1258085        687.42519      1257397.6      0.24549523     223.31105      284.77795      301.27002      304.84885      312.66318      169440.51     -30.393399      99           
   3762000   1258079.5      680.93914      1257398.6      0.24549523     221.20405      287.41506      301.26662      296.64         313.26547      169455.44      38.964869      90           
   3763000   1258082.5      683.36028      1257399.1      0.24549523     221.99056      300.79347      301.37242      299.12729      314.13736      169457.28     -23.439357      89           
   3764000   1258082.3      684.03573      1257398.2      0.24549523     222.20998      323.48425      302.59746      297.6469       314.32768      169454.41      26.35603       94           
   3765000   1258074.9      685.45182      1257389.5      0.24549523     222.67         291.3633       300.36429      303.26292      314.36673      169441.5      -11.900876      90           
   3766000   1258082.6      681.74596      1257400.9      0.24549523     221.46614      257.29826      300.26808      299.85764      312.11852      169464.53      10.962043      94           
   3767000   1258078.8      680.20735      1257398.6      0.24549523     220.96633      252.58101      300.29502      298.43117      310.54225      169483.43      14.445805      91           
   3768000   1258091.8      679.76341      1257412.1      0.24549523     220.82211      282.27785      299.92534      298.57174      308.41258      169443.53     -9.0571496      95           
   3769000   1258091.2      682.21853      1257409        0.24549523     221.61966      290.4635       300.07551      301.56843      307.15938      169470.78      22.705539      92           
   3770000   1258093.4      684.8801       1257408.5      0.24549523     222.48428      341.65533      301.41348      302.56397      305.43126      169437.62     -22.215515      98           
   3771000   1258075.8      675.41118      1257400.4      0.24549523     219.40828      322.07121      297.24612      296.93629      307.1124       169429.51      27.383504      101          
   3772000   1258079.3      680.08823      1257399.2      0.24549523     220.92763      342.34945      297.77162      301.19411      308.94279      169466.98     -17.500096      96           
   3773000   1258080.3      677.01178      1257403.3      0.24549523     219.92824      327.70569      298.49729      296.69667      308.35451      169450.41      11.883655      96           
   3774000   1258084.1      685.28426      1257398.9      0.24549523     222.61557      351.65111      301.40461      302.55671      306.90044      169452.65      7.0454615      91           
   3775000   1258080.3      674.53166      1257405.8      0.24549523     219.12257      349.80046      297.24667      296.15579      304.86911      169441.72     -3.4994055      91           
   3776000   1258082.7      684.27826      1257398.4      0.24549523     222.28877      319.29313      303.16217      299.79014      304.46422      169478.01      12.623824      90           
   3777000   1258082.3      678.26486      1257404.1      0.24549523     220.33531      312.61173      298.34901      299.90622      303.72261      169451.99     -12.137908      105          
   3778000   1258085.7      679.53825      1257406.1      0.24549523     220.74897      312.07039      298.20197      301.66946      304.01802      169457.69      29.489474      108          
   3779000   1258079.6      683.92739      1257395.6      0.24549523     222.17479      298.996        302.32462      300.28384      306.89582      169487.46     -23.414457      111          
   3780000   1258084.4      684.66366      1257399.7      0.24549523     222.41396      310.81924      302.69422      299.97043      308.56928      169424.08      29.246626      111          
   3781000   1258087.2      686.39239      1257400.8      0.24549523     222.97555      320.46896      305.01445      298.39935      308.74523      169479.13     -19.759941      115          
   3782000   1258082.8      680.30902      1257402.5      0.24549523     220.99935      305.62955      297.40559      302.42821      309.51649      169444.79      22.585387      112          
   3783000   1258082        682.40717      1257399.6      0.24549523     221.68094      287.1291       300.04859      301.10635      310.46981      169464.8       0.28107404     111          
   3784000   1258078.9      676.08826      1257402.8      0.24549523     219.62823      305.45996      295.49446      300.63206      307.53778      169418.61     -6.1899511      100          
   3785000   1258090.3      686.0501       1257404.3      0.24549523     222.86435      297.40956      302.36332      302.96081      306.41301      169475.65      27.944409      90           
   3786000   1258095.2      688.11985      1257407.1      0.24549523     223.53671      267.29432      302.33315      306.67751      303.83266      169466.05     -28.872686      84           
   3787000   1258077.7      676.94678      1257400.7      0.24549523     219.90713      288.07749      297.93964      299.58608      302.53573      169438.66      42.231366      94           
   3788000   1258083        682.12458      1257400.9      0.24549523     221.58914      310.81307      300.74792      301.70156      301.33605      169439.44     -39.332497      95           
   3789000   1258088.5      686.12553      1257402.4      0.24549523     222.88886      299.43066      303.15567      302.85007      302.85421      169430.04      40.848744      100          
   3790000   1258081.5      681.45249      1257400.1      0.24549523     221.37081      346.97671      300.80657      299.32577      304.81985      169455.79     -22.263977      97           
   3791000   1258094.8      689.38211      1257405.5      0.24549523     223.94676      307.10185      305.45512      302.50266      305.53738      169420.2       16.871838      95           
   3792000   1258090.8      686.15758      1257404.6      0.24549523     222.89927      303.66939      303.40858      301.27482      306.95642      169449         5.3084925      94           
   3793000   1258084.3      683.17843      1257401.1      0.24549523     221.93149      291.73241      301.42605      300.95045      306.32315      169451.99     -6.9314703      93           
   3794000   1258077.7      677.17866      1257400.5      0.24549523     219.98245      292.92667      301.77117      293.69372      303.85661      169463.26      22.892235      94           
   3795000   1258079.3      676.92352      1257402.4      0.24549523     219.89957      343.91588      299.48606      296.87471      300.62503      169442.92     -20.69065       101          
   3796000   1258080.3      677.11805      1257403.2      0.24549523     219.96276      312.40867      296.42832      302.64391      299.0427       169476.19      29.605594      96           
   3797000   1258080.5      670.92789      1257409.6      0.24549523     217.95188      345.70271      294.06109      298.74536      296.48708      169440.33     -15.830699      99           
   3798000   1258085.3      678.38727      1257406.9      0.24549523     220.37507      298.80395      300.78037      297.85046      299.0909       169441.67      17.378358      85           
   3799000   1258082.7      681.68691      1257401        0.24549523     221.44696      301.80407      300.70882      301.34151      301.49029      169473.27     -0.10803578     85           
   3800000   1258074.9      675.01885      1257399.8      0.24549523     219.28084      294.51551      298.47255      296.3756       302.52105      169418.06     -3.8993232      88           
   3801000   1258078.1      681.3483       1257396.8      0.24549523     221.33697      276.11421      299.44103      302.62168      303.77933      169456.87      20.288013      85           
   3802000   1258077.2      676.22108      1257400.9      0.24549523     219.67138      315.56223      295.85038      301.74721      301.4187       169463.21     -16.826616      89           
   3803000   1258078.9      674.9724       1257404        0.24549523     219.26575      287.18853      298.51698      297.05426      299.64224      169450.3       26.07957       82           
   3804000   1258075.7      674.14593      1257401.5      0.24549523     218.99727      280.36034      296.97672      298.77466      298.47959      169461.71     -15.890044      83           
   3805000   1258086.9      676.6326       1257410.3      0.24549523     219.80506      238.7707       300.70262      296.61622      298.71572      169488.54      22.914887      75           
   3806000   1258081        678.7943       1257402.2      0.24549523     220.5073       275.4937       297.29023      303.82344      299.08263      169447.84     -7.1549978      70           
   3807000   1258083.6      682.64892      1257400.9      0.24549523     221.75948      284.63038      304.10638      297.50021      301.76726      169455.26     -1.7745889      69           
   3808000   1258075.9      676.53743      1257399.3      0.24549523     219.77415      281.30637      297.54285      299.86482      301.97701      169487.34      20.528554      72           
   3809000   1258074        671.35333      1257402.7      0.24549523     218.09008      301.2056       298.55084      291.69616      302.17438      169435.82     -22.401815      75           
   3810000   1258090.8      686.2998       1257404.5      0.24549523     222.94547      288.5258       302.88115      304.02295      300.84289      169454.37      32.9724        66           
   3811000   1258077.9      672.99805      1257404.9      0.24549523     218.62437      297.30066      296.71436      297.39532      298.93385      169458.25     -26.295604      62           
   3812000   1258078.5      676.18203      1257402.3      0.24549523     219.6587       300.71754      299.67473      297.31116      297.1261       169470.89      36.91829       68           
   3813000   1258079.6      672.53917      1257407.1      0.24549523     218.47531      263.08451      294.77776      300.95956      295.72763      169447.55     -24.377202      73           
   3814000   1258077.9      670.70356      1257407.2      0.24549523     217.87901      330.96839      296.93433      294.84539      295.14768      169435.32      24.580113      79           
   3815000   1258078.7      674.46809      1257404.2      0.24549523     219.10192      285.97971      300.1932       294.64738      296.90876      169476.64     -1.4111392      73           
   3816000   1258085.4      678.94776      1257406.4      0.24549523     220.55715      281.77149      304.97943      292.43798      299.07737      169418.19     -5.3168694      79           
   3817000   1258089        681.39432      1257407.6      0.24549523     221.35192      271.35199      303.13196      297.59682      301.74028      169463.26      21.550771      70           
   3818000   1258089.9      683.48465      1257406.4      0.24549523     222.03096      254.43989      303.55191      299.55034      302.42285      169425.89     -18.997651      66           
   3819000   1258076.9      678.47323      1257398.4      0.24549523     220.40299      274.33214      298.01252      301.81222      301.30233      169495.12      31.512831      75           
   3820000   1258084.6      679.56228      1257405        0.24549523     220.75677      307.79979      298.63528      302.56589      298.49446      169425.42     -25.79491       82           
   3821000   1258091.1      686.00854      1257405.1      0.24549523     222.85085      307.50966      304.53742      302.35932      295.55455      169446.93      23.164597      84           
   3822000   1258091.7      683.04933      1257408.6      0.24549523     221.88955      305.86942      302.86398      301.58969      294.38436      169455.02     -0.93428959     83           
   3823000   1258089        679.03214      1257410        0.24549523     220.58456      294.19147      297.83928      304.19732      295.09775      169426        -2.6934949      89           
   3824000   1258084.3      684.1152       1257400.2      0.24549523     222.2358       301.69352      302.37526      303.23929      296.21474      169458.09      15.781433      82           
   3825000   1258079.5      677.56148      1257401.9      0.24549523     220.10681      325.21234      300.20763      297.57762      298.26173      169440.95     -5.2014163      76           
   3826000   1258085.2      685.46047      1257399.7      0.24549523     222.67281      311.95622      300.19766      307.2312       299.25285      169474.17      19.20705       78           
   3827000   1258079.4      679.2429       1257400.2      0.24549523     220.65302      238.21403      300.83668      299.33066      300.06239      169425.75     -13.155667      75           
   3828000   1258081.9      679.80192      1257402.1      0.24549523     220.83462      272.9594       302.66167      297.12882      298.94693      169483.26      16.085539      82           
   3829000   1258080.8      677.61423      1257403.2      0.24549523     220.12395      274.63402      299.8973       298.60364      298.87909      169440.05     -3.6649566      84           
   3830000   1258087.3      677.12888      1257410.2      0.24549523     219.96628      278.22092      301.4834       295.65294      298.53436      169466.81      1.8966976      80           
   3831000   1258074        671.6263       1257402.4      0.24549523     218.17876      272.66995      293.80572      300.43391      299.31268      169457.97      15.910742      82           
   3832000   1258078.9      679.6285       1257399.3      0.24549523     220.77829      314.44424      300.07035      300.15509      299.38472      169467.76     -9.6122497      86           
   3833000   1258077.8      680.29436      1257397.5      0.24549523     220.99459      281.47795      300.16666      300.88644      300.71673      169448.13      16.005711      77           
   3834000   1258078        672.49485      1257405.5      0.24549523     218.46091      282.89801      296.1546       297.37814      300.51165      169398.18     -11.346976      79           
   3835000   1258082.7      677.87483      1257404.8      0.24549523     220.2086       287.18808      296.80067      303.42483      298.88955      169489.63      11.620278      90           
   3836000   1258094.5      682.32187      1257412.2      0.24549523     221.65323      323.01012      304.2326       297.83874      296.47442      169459.5       6.0953952      93           
   3837000   1258089        685.51721      1257403.5      0.24549523     222.69124      295.13324      303.24966      303.78352      295.76429      169440.36     -6.8031199      93           
   3838000   1258083.8      681.93885      1257401.8      0.24549523     221.52881      310.11602      302.53271      300.32613      295.61393      169479.67      20.989746      100          
   3839000   1258101.7      692.51021      1257409.2      0.24549523     224.96293      310.84877      304.56105      309.89585      297.04355      169453.33     -22.961828      105          
   3840000   1258082        680.3132       1257401.7      0.24549523     221.00071      349.24322      300.38702      300.36757      297.70786      169459.66      35.758551      102          
   3841000   1258089.8      687.32096      1257402.4      0.24549523     223.27719      343.25721      303.25386      304.10918      300.14958      169426.08     -31.128774      104          
   3842000   1258078.8      684.54511      1257394.3      0.24549523     222.37545      336.20197      302.96146      300.7888       301.55226      169455.47      30.3229        114          
   3843000   1258081.3      682.00927      1257399.3      0.24549523     221.55168      322.68386      298.32062      304.74414      302.23817      169427.2      -12.519876      119          
   3844000   1258084.1      677.23513      1257406.9      0.24549523     220.0008       299.92044      296.55919      302.1338       301.25086      169456.05      8.8277789      113          
   3845000   1258082        681.19701      1257400.8      0.24549523     221.28782      312.34656      302.91446      298.04159      298.47644      169479.43      14.897332      102          
   3846000   1258088.2      680.62661      1257407.6      0.24549523     221.10252      291.98811      303.26756      297.87884      295.68065      169429.06     -16.046923      105          
   3847000   1258076.2      676.09982      1257400.1      0.24549523     219.63199      268.29868      298.90259      298.95728      296.56843      169446.26      36.329531      88           
   3848000   1258076.4      680.75696      1257395.6      0.24549523     221.14487      286.34198      302.73259      299.00276      295.25025      169449.5      -41.457001      110          
   3849000   1258079.4      680.09104      1257399.4      0.24549523     220.92854      282.2359       297.18576      305.88523      298.07431      169484.67      53.897692      101          
   3850000   1258078.3      672.71106      1257405.6      0.24549523     218.53114      296.53402      294.62385      300.35568      298.30011      169408.59     -54.506149      107          
   3851000   1258078.7      676.39291      1257402.3      0.24549523     219.7272       309.07889      302.6963       292.54461      298.29098      169468.09      58.29665       113          
   3852000   1258087.5      680.24451      1257407.3      0.24549523     220.9784       303.56273      300.2847       301.25596      297.37718      169432.2      -35.111994      104          
   3853000   1258088.8      683.55807      1257405.3      0.24549523     222.05481      288.67525      301.15609      304.69046      295.63498      169483.02      26.239941      103          
   3854000   1258083.2      679.6327       1257403.6      0.24549523     220.77965      317.86967      304.13571      295.64636      292.9371       169408.64     -7.7303524      105          
   3855000   1258092.1      684.96351      1257407.1      0.24549523     222.51137      307.62702      306.23317      299.57834      291.51786      169439.14     -10.120336      110          
   3856000   1258087        684.14834      1257402.9      0.24549523     222.24656      290.59966      303.51256      302.7903       292.03827      169494.17      37.729743      115          
   3857000   1258084.9      676.47719      1257408.4      0.24549523     219.75458      272.64032      300.60114      297.63945      293.72304      169366.41     -49.43603       110          
   3858000   1258084.7      673.40467      1257411.3      0.24549523     218.75647      249.30375      299.51416      295.07499      297.05864      169483.53      62.878542      117          
   3859000   1258085.8      682.58257      1257403.3      0.24549523     221.73792      272.99922      300.79899      303.97768      297.30434      169408.28     -62.648047      130          
   3860000   1258077.1      677.97343      1257399.1      0.24549523     220.24063      295.44098      300.57957      297.89497      298.14917      169478.23      69.471557      135          
   3861000   1258079.8      683.03163      1257396.8      0.24549523     221.8838       300.29401      302.79976      300.67013      298.11462      169424.66     -50.856566      139          
   3862000   1258073.9      675.06518      1257398.8      0.24549523     219.29589      286.70267      299.12297      297.34388      295.92525      169477.78      45.756745      138          
   3863000   1258074.7      675.8265       1257398.9      0.24549523     219.5432       300.89292      298.41992      299.51559      294.11508      169445.35     -18.138611      136          
   3864000   1258075.5      674.30515      1257401.2      0.24549523     219.04899      299.96722      299.80045      295.91501      292.94079      169447.69      3.6239759      134          
   3865000   1258073.8      676.98881      1257396.8      0.24549523     219.92078      301.92411      296.98093      303.35444      293.00402      169466.42      23.352879      139          
   3866000   1258070.9      670.94169      1257399.9      0.24549523     217.95636      306.07434      295.17994      297.78169      295.92819      169453.91     -32.472248      138          
   3867000   1258078.6      679.02865      1257399.5      0.24549523     220.58343      285.41028      300.05961      300.12454      298.69289      169470.52      50.317974      140          
   3868000   1258093.3      688.80891      1257404.4      0.24549523     223.76056      287.31563      303.95968      305.74143      300.64186      169403.52     -50.137717      141          
   3869000   1258084.1      682.71393      1257401.4      0.24549523     221.78059      249.19996      302.18241      301.60198      300.92928      169495.25      54.105808      132          
   3870000   1258071.3      676.77762      1257394.5      0.24549523     219.85217      243.44836      300.47008      297.25092      299.98565      169431.39     -39.283441      126          
   3871000   1258078        679.01887      1257399        0.24549523     220.58025      249.26744      300.90087      299.36607      299.09982      169466.5       40.091282      118          
   3872000   1258084.7      681.14412      1257403.5      0.24549523     221.27064      279.69635      299.60391      303.95748      297.00692      169413.31     -22.719317      134          
   3873000   1258081.2      683.64948      1257397.6      0.24549523     222.08451      281.57116      303.70613      301.21544      295.44871      169478.83      19.321177      148          
   3874000   1258079.6      679.89069      1257399.7      0.24549523     220.86346      306.13928      301.22584      299.86279      295.21043      169443.89      5.3389153      146          
   3875000   1258085.9      676.01592      1257409.8      0.24549523     219.60473      296.7477       296.57971      302.41027      294.78942      169442.07     -10.876032      150          
   3876000   1258073.9      677.18732      1257396.8      0.24549523     219.98527      281.86993      299.42455      299.35202      296.97709      169505.06      30.328641      146          
   3877000   1258073.5      675.39455      1257398.1      0.24549523     219.40288      285.41549      298.30434      298.53207      297.82552      169404.45     -26.718131      146          
   3878000   1258070.1      673.10596      1257396.9      0.24549523     218.65943      263.01497      296.94156      298.18498      297.99365      169487.97      31.050643      136          
   3879000   1258075.7      677.01333      1257398.7      0.24549523     219.92874      245.85088      298.39769      301.54202      296.39621      169400.29     -24.028293      131          
   3880000   1258081.9      684.26596      1257397.6      0.24549523     222.28477      250.49746      301.38296      306.05182      295.68644      169492.02      25.298498      130          
   3881000   1258079.1      676.02314      1257403.1      0.24549523     219.60708      277.5768       297.31071      302.27695      292.6173       169456.31     -14.764782      127          
   3882000   1258076.6      672.4492       1257404.2      0.24549523     218.44608      267.51981      300.18013      293.33344      294.17967      169457.77      13.040819      121          
   3883000   1258080.4      679.19324      1257401.2      0.24549523     220.63689      286.82299      303.4427       296.15193      295.04303      169499.95      3.834519       123          
   3884000   1258089.3      683.94882      1257405.4      0.24549523     222.18175      310.68731      303.28491      301.53988      295.82114      169435.01     -9.4251573      126          
   3885000   1258076.8      683.2078       1257393.6      0.24549523     221.94103      288.97688      304.25756      299.05309      297.93781      169467.95      25.86862       131          
   3886000   1258073.5      675.71156      1257397.8      0.24549523     219.50586      269.2286       299.78238      296.8023       298.5167       169408.41     -26.572457      128          
   3887000   1258084.7      683.87434      1257400.8      0.24549523     222.15755      256.00702      301.91462      303.99594      297.92168      169488.33      34.302612      118          
   3888000   1258076.7      677.40648      1257399.3      0.24549523     220.05646      271.34798      301.96157      295.98509      296.84312      169412.72     -26.878033      122          
   3889000   1258084.2      677.91365      1257406.3      0.24549523     220.22121      260.62276      301.80542      297.35537      295.84891      169483.52      28.643798      121          
   3890000   1258079.9      678.08002      1257401.8      0.24549523     220.27526      240.78528      303.76257      295.09014      295.276        169432.01     -10.751579      115          
   3891000   1258083.1      676.5892       1257406.5      0.24549523     219.79096      259.09942      300.45933      297.84928      295.30294      169470.5       5.857022       117          
   3892000   1258086.3      683.60278      1257402.7      0.24549523     222.06934      289.46197      303.18202      301.44978      296.70572      169445.82      20.656574      116          
   3893000   1258073.4      671.86734      1257401.5      0.24549523     218.25706      296.46239      297.28635      295.23158      298.73563      169423.86     -35.91321       132          
   3894000   1258081.1      684.50229      1257396.6      0.24549523     222.36155      287.23662      303.41732      301.65282      299.01043      169490.1       49.984955      124          
   3895000   1258073.3      673.67761      1257399.6      0.24549523     218.84513      272.3318       298.52861      296.46655      297.14079      169405.26     -53.202447      126          
   3896000   1258075        673.12132      1257401.8      0.24549523     218.66442      250.41838      296.30382      299.62959      297.22928      169510.84      71.477587      127          
   3897000   1258078.7      680.52352      1257398.2      0.24549523     221.06903      251.29618      299.15242      304.91975      295.04803      169393.89     -64.395551      125          
   3898000   1258082.7      674.47729      1257408.2      0.24549523     219.10491      259.5726       299.62169      296.84701      293.95129      169493.82      60.979011      115          
   3899000   1258095.1      681.62697      1257413.5      0.24549523     221.42749      287.40072      300.9642       302.89781      294.83282      169433.53     -39.353599      114          
   3900000   1258080        677.72042      1257402.2      0.24549523     220.15844      277.91184      299.52782      300.16764      295.76572      169449.6       27.363178      115          
   3901000   1258085.2      679.95509      1257405.3      0.24549523     220.88438      308.12159      300.06938      300.98596      297.89822      169463.97      8.4416862      109          
   3902000   1258081.9      678.75737      1257403.1      0.24549523     220.4953       282.60625      300.66472      298.35547      300.65361      169458.44     -27.229338      112          
   3903000   1258080.9      682.98188      1257397.9      0.24549523     221.86764      289.78586      301.15203      302.80386      300.10735      169475.61      54.95139       109          
   3904000   1258077.4      676.8673       1257400.5      0.24549523     219.88131      307.03156      301.512        295.16808      297.40836      169418.67     -60.202635      115          
   3905000   1258083        680.02519      1257402.9      0.24549523     220.90715      299.11492      302.26905      298.42805      296.03109      169484.66      71.024215      108          
   3906000   1258077.9      676.49994      1257401.4      0.24549523     219.76197      276.60832      300.45309      297.98563      293.12494      169407.48     -61.548086      113          
   3907000   1258073.6      676.36451      1257397.3      0.24549523     219.71797      294.63655      301.42975      295.93402      293.4893       169495.67      48.089499      115          
   3908000   1258084.3      678.08176      1257406.3      0.24549523     220.27583      284.67976      296.6004       305.42105      293.72677      169437.7      -23.192866      110          
   3909000   1258076.9      674.69856      1257402.2      0.24549523     219.17679      276.00979      296.94327      300.09885      296.7121       169465.72      12.482101      107          
   3910000   1258088.8      686.81828      1257402        0.24549523     223.1139       285.16307      304.2233       303.30827      298.88954      169447.96      9.4687126      100          
   3911000   1258080.8      678.94972      1257401.8      0.24549523     220.55778      268.93374      298.84002      301.47292      300.86749      169451.9      -17.016523      100          
   3912000   1258089.2      679.9805       1257409.2      0.24549523     220.89263      307.99583      299.95262      300.67829      299.91044      169468.88      36.962994      112          
   3913000   1258077.7      681.31425      1257396.3      0.24549523     221.3259       269.57208      303.30058      298.78266      296.60511      169447.34     -34.840055      101          
   3914000   1258079.6      674.78077      1257404.9      0.24549523     219.20349      255.2039       299.37617      297.19831      295.22666      169497.62      45.785722      101          
   3915000   1258068.8      671.70846      1257397.1      0.24549523     218.20545      279.41901      296.47972      297.86381      293.67203      169379.21     -32.527859      107          
   3916000   1258086.4      681.96567      1257404.4      0.24549523     221.53752      278.80056      301.24396      303.01856      294.55198      169468.36      34.629479      95           
   3917000   1258079.3      675.48698      1257403.8      0.24549523     219.43291      301.78724      301.5144       293.95144      296.02463      169453.5      -16.11715       94           
   3918000   1258080        679.73756      1257400.3      0.24549523     220.81371      308.18426      300.54366      300.09321      297.65126      169457.84      16.646861      105          
   3919000   1258082.9      687.21532      1257395.7      0.24549523     223.24287      327.21259      302.37573      306.10378      298.15565      169440.09      4.7978115      101          
   3920000   1258071.8      674.23165      1257397.6      0.24549523     219.02511      294.06482      294.69695      302.15766      298.37325      169467.32     -3.4513119      102          
   3921000   1258074.3      673.58193      1257400.7      0.24549523     218.81405      307.47291      295.26954      300.7805       296.53608      169480.58      13.497689      95           
   3922000   1258072.5      672.94731      1257399.6      0.24549523     218.60789      310.40361      297.73662      296.84887      294.37564      169427.2      -10.52672       106          
   3923000   1258079.6      675.37138      1257404.2      0.24549523     219.39536      305.84825      297.60394      300.15788      294.02237      169498.79      20.970542      98           
   3924000   1258075.9      677.89346      1257398        0.24549523     220.21466      281.96614      299.60644      300.67524      293.77713      169436.17     -19.651269      96           
   3925000   1258075.6      678.39798      1257397.2      0.24549523     220.37855      281.91824      300.61272      299.36725      295.47885      169442.17      25.072048      101          
   3926000   1258076        675.49723      1257400.5      0.24549523     219.43624      299.08138      300.1207       295.78063      296.94822      169438.44     -12.566189      104          
   3927000   1258077.9      677.26579      1257400.7      0.24549523     220.01076      331.46899      297.49063      301.17229      297.72336      169457.05      18.898376      118          
   3928000   1258086.5      681.60163      1257404.9      0.24549523     221.41926      297.22045      302.05506      300.19009      298.02253      169451.98     -4.1689848      118          
   3929000   1258076.3      673.47861      1257402.9      0.24549523     218.78049      303.83744      295.99621      299.41074      297.33045      169430.41      12.091679      115          
   3930000   1258082.1      679.78285      1257402.4      0.24549523     220.82843      312.45697      300.88665      300.24629      294.9076       169471.57      0.28587261     120          
   3931000   1258081.3      676.76663      1257404.5      0.24549523     219.8486       296.86304      298.14609      301.51209      292.81502      169428.25     -0.15220016     125          
   3932000   1258080.7      678.76662      1257402        0.24549523     220.4983       297.39475      297.78284      304.20246      293.67905      169446.34      16.898121      132          
   3933000   1258080.3      680.72004      1257399.6      0.24549523     221.13288      287.47032      298.96867      304.32492      296.55095      169475.9      -13.313217      120          
   3934000   1258077.3      679.12667      1257398.1      0.24549523     220.61527      256.12952      299.13795      302.19814      298.26438      169428.23      15.466827      118          
   3935000   1258089.9      681.98221      1257407.9      0.24549523     221.54289      254.83205      300.30578      303.7176       299.31452      169440.64     -5.3652691      114          
   3936000   1258078.6      674.51483      1257404.1      0.24549523     219.1171       297.11821      296.2178       300.02068      298.94758      169440.89      12.443036      114          
   3937000   1258078.7      680.09191      1257398.6      0.24549523     220.92883      305.71725      301.26371      299.11414      299.00883      169484.04      4.2444556      118          
   3938000   1258073        677.47444      1257395.6      0.24549523     220.07854      331.68331      297.79453      301.31157      296.32581      169416.81     -0.97593241     122          
   3939000   1258075.3      680.43124      1257394.9      0.24549523     221.03906      339.5483       299.04871      302.8945       296.30569      169463.13      13.675417      125          
   3940000   1258086        680.21559      1257405.8      0.24549523     220.969        304.3111       296.75931      306.44928      297.46807      169455.57     -12.813066      120          
   3941000   1258082.4      679.29173      1257403.1      0.24549523     220.66889      309.51081      299.2259       301.45393      297.62392      169462.76      17.624771      123          
   3942000   1258082.5      683.8697       1257398.7      0.24549523     222.15605      311.85187      303.12334      300.13632      301.46842      169444.72     -6.0098278      118          
   3943000   1258079.8      682.55241      1257397.2      0.24549523     221.72812      311.20739      301.83179      300.25105      302.5759       169448.31      4.7950342      116          
   3944000   1258076.8      678.69648      1257398.1      0.24549523     220.47552      306.47305      299.24826      299.57456      302.24101      169464.26      15.145061      109          
   3945000   1258074.8      676.98776      1257397.8      0.24549523     219.92044      306.99908      298.88795      298.28055      301.09452      169396.24     -15.872334      112          
   3946000   1258092        683.94118      1257408.1      0.24549523     222.17927      311.35822      304.189        299.15065      299.76921      169494.58      24.359159      114          
   3947000   1258087.3      680.88805      1257406.4      0.24549523     221.18745      297.13166      299.83677      302.62344      298.43083      169398.24     -10.155352      106          
   3948000   1258081.3      676.81907      1257404.4      0.24549523     219.86564      272.17179      298.01715      301.08363      296.88173      169467.4       21.049707      100          
   3949000   1258085.6      680.18711      1257405.4      0.24549523     220.95975      280.64567      297.80749      305.31532      297.17992      169421.92     -14.996094      95           
   3950000   1258090.3      677.17094      1257413.1      0.24549523     219.97995      267.45959      300.24122      297.62631      299.12164      169474.45      19.945495      95           
   3951000   1258086.3      686.00418      1257400.3      0.24549523     222.84943      284.47341      304.55199      301.23779      300.98612      169445.12     -1.7606867      106          
   3952000   1258078.6      672.53415      1257406        0.24549523     218.47368      273.07061      298.57591      293.44454      302.31645      169434.36      0.48456106     93           
   3953000   1258088.3      677.87587      1257410.5      0.24549523     220.20894      292.33554      296.95363      302.27876      302.10977      169479.81      14.181474      99           
   3954000   1258085.9      678.01004      1257407.9      0.24549523     220.25253      262.01745      299.5084       298.96675      302.63283      169418.45     -16.758149      104          
   3955000   1258090        687.7018       1257402.3      0.24549523     223.40091      265.15202      302.2013       306.91391      302.00513      169485.33      29.397967      98           
   3956000   1258082.7      677.39304      1257405.3      0.24549523     220.0521       321.75497      303.43308      292.7235       297.34762      169407.82     -27.116877      104          
   3957000   1258091.8      685.58403      1257406.2      0.24549523     222.71295      326.77851      303.41633      302.66745      297.67184      169482.5       29.417945      101          
   3958000   1258093        684.15638      1257408.8      0.24549523     222.24917      342.05999      303.2702       300.56607      298.70804      169448.42     -9.9125504      108          
   3959000   1258090.7      687.90701      1257402.8      0.24549523     223.46757      313.46848      303.86888      304.45634      299.8589       169439.87      8.8451882      110          
   3960000   1258084.6      684.14162      1257400.5      0.24549523     222.24438      298.07989      303.82511      299.65335      301.67667      169470.25      4.3703907      112          
   3961000   1258084.1      682.26549      1257401.9      0.24549523     221.63492      300.5487       302.98412      298.82971      300.78297      169420.5      -3.7240434      102          
   3962000   1258084.8      681.62081      1257403.2      0.24549523     221.42549      280.85163      302.07083      299.08134      303.31674      169497.9       16.974631      109          
   3963000   1258082.6      680.93547      1257401.6      0.24549523     221.20286      288.1012       298.75657      303.12447      303.1955       169410.5      -23.015949      102          
   3964000   1258077.8      676.16499      1257401.7      0.24549523     219.65316      276.01607      296.23359      301.10034      303.53093      169479.87      27.151224      91           
   3965000   1258077.2      680.60464      1257396.6      0.24549523     221.09539      286.83502      299.13819      302.37749      302.39799      169406.93     -19.166444      107          
   3966000   1258087        684.5966       1257402.4      0.24549523     222.39218      314.01876      300.10635      305.45742      302.11099      169460.05      26.869206      102          
   3967000   1258077.3      678.49788      1257398.8      0.24549523     220.411        274.6863       300.32059      297.96128      303.12858      169441.77     -13.077818      94           
   3968000   1258078.9      677.80931      1257401.1      0.24549523     220.18732      278.06204      300.0464       297.41134      303.24209      169457.4       9.1898328      85           
   3969000   1258085.9      681.93746      1257403.9      0.24549523     221.52835      264.9173       303.61229      296.90798      304.79966      169470.37      6.0639144      89           
   3970000   1258083.2      682.55855      1257400.6      0.24549523     221.73012      241.939        302.46828      299.44867      305.75844      169431.95     -13.531582      88           
   3971000   1258084.5      682.72189      1257401.8      0.24549523     221.78318      286.09871      299.99463      302.97865      305.03778      169479.88      25.767648      97           
   3972000   1258085.9      679.88064      1257406        0.24549523     220.86019      286.53728      301.21106      297.66755      304.97578      169408.28     -25.357231      98           
   3973000   1258081.6      684.63588      1257396.9      0.24549523     222.40494      323.61979      301.6322       302.6599       303.63429      169503.67      27.395186      100          
   3974000   1258075.1      680.07687      1257395        0.24549523     220.92394      320.92249      298.44202      301.51698      305.04873      169435.13     -14.715756      101          
   3975000   1258084.5      674.67648      1257409.8      0.24549523     219.16962      323.06028      297.9705       295.91569      303.70707      169453.51      17.824999      98           
   3976000   1258085.8      680.49234      1257405.3      0.24549523     221.0589       317.05671      299.42656      300.99424      303.5322       169459.82     -2.8420977      92           
   3977000   1258085.1      679.64461      1257405.5      0.24549523     220.78352      301.6032       300.88923      297.87678      304.03056      169473.91      1.7001378      90           
   3978000   1258083.3      681.64607      1257401.7      0.24549523     221.4337       297.60028      299.42813      302.42654      304.67251      169461.28      10.840547      97           
   3979000   1258073        676.95426      1257396.1      0.24549523     219.90955      270.24046      299.24362      297.25696      304.88594      169413.51     -9.9067109      84           
   3980000   1258087.5      685.71424      1257401.8      0.24549523     222.75525      319.82542      303.79867      300.52201      304.70526      169483.7       18.153483      92           
   3981000   1258080.7      681.04511      1257399.7      0.24549523     221.23847      333.96156      297.43012      304.16849      304.58029      169403.9      -1.4045691      97           
   3982000   1258083.7      681.88587      1257401.8      0.24549523     221.5116       300.56999      301.99208      298.61565      305.45895      169457.74      8.0717224      100          
   3983000   1258076.8      677.6047       1257399.2      0.24549523     220.12085      275.55329      296.32508      302.22414      305.50233      169427.36      1.5936079      93           
   3984000   1258080.5      676.06463      1257404.5      0.24549523     219.62056      287.7599       300.42988      294.27786      304.38485      169491.19      1.9038515      94           
   3985000   1258084.6      678.73066      1257405.8      0.24549523     220.48662      266.7432       297.94301      301.60005      304.21034      169446.65      3.1061442      85           
   3986000   1258078.4      679.69959      1257398.7      0.24549523     220.80138      310.21976      297.04732      303.61748      303.97076      169422.64      2.8962357      90           
   3987000   1258078.2      678.14198      1257400        0.24549523     220.29539      302.15283      299.44403      298.14047      304.2278       169483.62      14.153048      84           
   3988000   1258081.4      677.49892      1257403.9      0.24549523     220.08649      310.53836      300.48104      295.74391      303.94659      169410.62     -9.4037928      94           
   3989000   1258070.9      675.47619      1257395.4      0.24549523     219.4294       301.18255      298.49219      296.11764      304.77714      169468.33      21.12468       80           
   3990000   1258087.1      682.40948      1257404.7      0.24549523     221.68169      292.96146      302.22258      299.39389      304.17203      169444.9      -14.714194      78           
   3991000   1258085.8      678.44203      1257407.4      0.24549523     220.39286      291.92167      302.38446      294.25773      304.06419      169491.09      18.835666      80           
   3992000   1258078.7      674.77659      1257403.9      0.24549523     219.20214      266.83077      298.77496      295.12999      305.36898      169431.83     -7.8167798      85           
   3993000   1258081        679.3841       1257401.7      0.24549523     220.69889      303.52363      299.47848      299.53953      304.44609      169470.15      12.694936      83           
   3994000   1258084.4      679.7132       1257404.7      0.24549523     220.8058       361.22022      296.61805      303.66385      303.57524      169437.49      2.7403634      90           
   3995000   1258083.4      680.69958      1257402.7      0.24549523     221.12623      353.62803      299.18923      301.52688      302.15911      169471.81     -2.5990749      86           
   3996000   1258088.5      683.97627      1257404.5      0.24549523     222.19066      329.36284      302.4494       301.2342       301.30884      169457.75      16.455046      80           
   3997000   1258087        685.32427      1257401.6      0.24549523     222.62857      309.04428      301.07077      305.20805      301.38384      169430.93     -12.502008      74           
   3998000   1258088        674.92786      1257413.1      0.24549523     219.25128      331.95173      298.49539      296.43806      299.53544      169468.93      28.944576      85           
   3999000   1258094.8      685.09198      1257409.7      0.24549523     222.5531       339.58769      302.27076      303.08389      299.86244      169435.11     -24.483234      88           
   4000000   1258095.1      688.90998      1257406.2      0.24549523     223.79339      353.84138      304.30344      304.63757      299.632        169458.61      28.739178      82           
   4001000   1258095.1      683.67828      1257411.4      0.24549523     222.09386      336.42507      304.25392      298.25459      300.42407      169434.13     -21.535142      80           
   4002000   1258092.6      684.46479      1257408.1      0.24549523     222.34936      306.08449      302.20092      302.5781       301.03347      169461.3       31.458248      76           
   4003000   1258085        678.76863      1257406.2      0.24549523     220.49896      299.50823      300.63472      297.77455      301.48625      169437.12     -26.939835      77           
   4004000   1258091.7      683.57951      1257408.1      0.24549523     222.06178      300.94622      302.93856      300.55901      300.64847      169474.16      24.091243      90           
   4005000   1258071.6      673.03402      1257398.5      0.24549523     218.63606      321.05872      298.44245      294.2314       300.034        169475.8      -10.344651      86           
   4006000   1258087.6      678.08372      1257409.5      0.24549523     220.27646      304.79858      301.24952      296.56504      299.55738      169448.84      4.577175       87           
   4007000   1258083        682.67713      1257400.3      0.24549523     221.76864      303.64741      302.45616      300.36507      299.74698      169486.89      16.026172      85           
   4008000   1258081.9      682.82813      1257399        0.24549523     221.81769      343.19754      298.44991      306.08509      299.50905      169422.95     -11.283492      89           
   4009000   1258074.5      672.50975      1257402        0.24549523     218.46575      322.93167      296.40453      296.62236      300.05074      169470.09      18.989085      86           
   4010000   1258081.7      681.02656      1257400.6      0.24549523     221.23245      315.64202      299.54641      302.21062      301.03254      169439.01     -13.531772      84           
   4011000   1258089.4      679.87598      1257409.5      0.24549523     220.85868      323.71198      301.7904       297.34177      301.05069      169434.15      16.880592      83           
   4012000   1258082.6      676.61724      1257406        0.24549523     219.80007      265.14825      299.78584      296.68672      302.35193      169454.26     -8.7509492      80           
   4013000   1258091        684.3112       1257406.7      0.24549523     222.29947      296.80816      304.25938      299.04636      302.47109      169426.31      15.825377      88           
   4014000   1258084.7      681.95518      1257402.7      0.24549523     221.53411      263.24933      299.86944      303.51307      301.54068      169445.45     -9.6333738      92           
   4015000   1258075.5      674.88655      1257400.6      0.24549523     219.23786      303.27019      296.84057      298.96934      300.83116      169451.06      21.559         103          
   4016000   1258081.5      679.05308      1257402.4      0.24549523     220.59136      286.36555      300.76142      298.36015      301.15941      169432.23     -16.155184      106          
   4017000   1258077.7      673.70438      1257404        0.24549523     218.85383      279.04916      296.54522      298.3279       300.86535      169487.6       25.919591      107          
   4018000   1258071.8      676.52329      1257395.3      0.24549523     219.76956      309.01277      298.82561      297.66059      301.62766      169416.55     -18.697463      105          
   4019000   1258081        682.7467       1257398.2      0.24549523     221.79124      314.95046      302.18602      300.05104      302.07435      169475.2       27.459381      101          
   4020000   1258080.8      679.70906      1257401.1      0.24549523     220.80446      280.46507      300.38203      299.92661      300.77963      169438.96     -19.518812      103          
   4021000   1258083.2      681.08357      1257402.1      0.24549523     221.25097      281.42496      301.11009      300.81281      299.59294      169463.14      25.758726      100          
   4022000   1258088.6      679.36783      1257409.2      0.24549523     220.69361      267.10361      300.06381      300.38599      299.94692      169427.54     -10.058715      96           
   4023000   1258079.4      678.89923      1257400.5      0.24549523     220.54138      294.20871      299.98227      300.35401      296.81859      169455.4       7.9243439      96           
   4024000   1258086.8      678.69612      1257408.1      0.24549523     220.4754       303.06644      298.35184      302.64161      296.004        169435.95      12.969681      94           
   4025000   1258080.9      676.84699      1257404        0.24549523     219.87471      287.25658      300.03096      298.20213      295.52822      169415.79     -10.605453      94           
   4026000   1258078.1      679.76626      1257398.4      0.24549523     220.82304      302.53033      300.18425      301.07882      296.47254      169458.4       24.319994      100          
   4027000   1258075.8      673.93539      1257401.9      0.24549523     218.92887      294.6559       296.73997      299.08261      297.2169       169456.42     -25.686901      103          
   4028000   1258084        682.00238      1257402        0.24549523     221.54944      305.44635      299.91153      303.84878      297.79456      169467.51      39.16322       95           
   4029000   1258080.7      677.1728       1257403.5      0.24549523     219.98055      293.12703      297.98132      300.51563      299.60243      169420.64     -39.045846      94           
   4030000   1258078.4      677.45094      1257401        0.24549523     220.0709       328.71404      301.00631      296.30559      297.54566      169481.03      47.259303      99           
   4031000   1258075        673.75039      1257401.3      0.24549523     218.86877      252.30582      297.40452      298.07688      298.28631      169390.34     -34.84228       87           
   4032000   1258067.1      668.01005      1257399.1      0.24549523     217.00402      291.84583      293.20226      297.16373      296.91783      169483.95      37.747674      87           
   4033000   1258078.8      679.27389      1257399.5      0.24549523     220.66309      311.70647      298.57802      302.95037      295.81924      169436.93     -20.86229       77           
   4034000   1258077.5      677.4645       1257400.1      0.24549523     220.07531      297.79267      299.45861      298.9411       298.10665      169455.09      23.367801      66           
   4035000   1258085        673.32304      1257411.7      0.24549523     218.72995      306.07787      296.59681      297.96399      298.58713      169461.57     -10.611696      76           
   4036000   1258089.1      688.66127      1257400.5      0.24549523     223.71259      293.88979      303.98844      305.51789      299.77705      169443.16      4.4596707      81           
   4037000   1258072.9      672.95402      1257399.9      0.24549523     218.61007      300.85583      296.47795      297.47186      299.62428      169472.16      10.883668      79           
   4038000   1258068.4      674.08463      1257394.3      0.24549523     218.97735      268.79268      296.66516      298.98276      299.58891      169432.55     -20.719677      78           
   4039000   1258078.2      675.43578      1257402.8      0.24549523     219.41628      307.97673      296.35144      301.23268      297.34364      169469.83      34.175232      82           
   4040000   1258075.9      673.42734      1257402.4      0.24549523     218.76383      293.96761      297.35205      297.74781      296.1793       169429.09     -34.210269      76           
   4041000   1258083.4      676.31906      1257407.1      0.24549523     219.70321      320.08917      300.82491      295.79252      296.10429      169446.06      43.04628       75           
   4042000   1258083.7      681.44454      1257402.3      0.24549523     221.36823      311.12919      301.51456      300.6181       298.39429      169467.11     -37.969503      73           
   4043000   1258080.8      681.085        1257399.7      0.24549523     221.25143      318.99191      301.52936      300.03176      298.37698      169467.25      35.471661      75           
   4044000   1258081.4      682.76387      1257398.6      0.24549523     221.79682      338.21057      301.56248      301.14389      300.88981      169440.74     -21.156331      69           
   4045000   1258088.7      684.52015      1257404.2      0.24549523     222.36735      311.47046      301.27508      304.21699      300.55314      169464.85      22.731694      73           
   4046000   1258091.4      690.49407      1257400.9      0.24549523     224.30798      304.35254      306.21413      304.11428      300.38822      169406.42     -5.7513079      79           
   4047000   1258082.5      678.68259      1257403.8      0.24549523     220.47101      331.02551      298.29628      301.31689      300.20806      169452.43      7.4268928      80           
   4048000   1258076.5      672.96428      1257403.5      0.24549523     218.61341      327.86136      297.14603      296.00818      300.0829       169451.03      5.5841413      77           
   4049000   1258086.8      685.08946      1257401.7      0.24549523     222.55229      313.68836      301.80418      304.02297      300.35958      169454.73     -5.173583       81           
   4050000   1258079.4      681.46777      1257397.9      0.24549523     221.37578      284.96366      301.65217      299.37538      303.33163      169458.39      18.598247      84           
   4051000   1258094.8      685.95253      1257408.9      0.24549523     222.83266      309.78141      303.6673       301.13627      304.83731      169422.05     -13.382674      83           
   4052000   1258077.2      677.62143      1257399.6      0.24549523     220.12629      273.29549      300.04964      296.35696      306.34293      169495         25.675896      75           
   4053000   1258080.5      680.83742      1257399.7      0.24549523     221.17101      304.01089      298.49393      302.27244      306.74279      169417.61     -12.970296      83           
   4054000   1258077        683.04292      1257394        0.24549523     221.88747      303.79858      300.34869      302.63867      305.04547      169456.46      17.374508      77           
   4055000   1258084.9      680.48636      1257404.4      0.24549523     221.05696      279.37841      299.9436       301.33194      301.2986       169465.58     -4.9134571      77           
   4056000   1258086.7      680.30225      1257406.4      0.24549523     220.99715      297.5672       298.64193      302.78459      301.53694      169421.54      10.213059      85           
   4057000   1258084.4      682.66115      1257401.7      0.24549523     221.76345      312.31343      301.57895      301.10729      301.32145      169451.83      2.498836       97           
   4058000   1258097.6      687.5641       1257410        0.24549523     223.35618      287.25973      304.12806      303.05761      303.39325      169453.28      4.9538058      90           
   4059000   1258087.9      685.11113      1257402.8      0.24549523     222.55933      315.79396      302.17532      302.42238      304.21395      169440.74      7.8265322      86           
   4060000   1258079.8      678.71168      1257401.1      0.24549523     220.48046      282.29263      299.24389      298.95693      305.95775      169461.29     -3.229745       91           
   4061000   1258080.5      679.69705      1257400.8      0.24549523     220.80056      351.97481      297.21671      302.48541      304.3943       169453.63      11.451984      105          
   4062000   1258078.1      678.60887      1257399.5      0.24549523     220.44706      289.82675      298.41394      300.58442      303.86802      169454.38     -6.701442       97           
   4063000   1258076.4      675.45598      1257401        0.24549523     219.42284      285.98984      300.40947      293.99018      302.92427      169430.98      17.151213      100          
   4064000   1258089.1      683.9764       1257405.1      0.24549523     222.19071      297.30758      301.01117      303.35301      303.08833      169490.22     -5.2685893      98           
   4065000   1258074.7      675.00869      1257399.7      0.24549523     219.27753      317.80293      294.79381      301.55804      302.39264      169449.53      6.0618273      94           
   4066000   1258064.9      669.11084      1257395.8      0.24549523     217.36161      313.07619      297.13303      290.54215      303.57156      169424.17     -0.99310863     84           
   4067000   1258082.1      679.5059       1257402.6      0.24549523     220.73846      295.9781       297.71668      301.87709      306.57842      169487.18      11.445259      89           
   4068000   1258085        683.43481      1257401.6      0.24549523     222.01477      306.89336      301.72579      300.42059      306.84681      169436.55     -2.544788       99           
   4069000   1258091.6      685.35482      1257406.3      0.24549523     222.63849      279.65686      301.49856      303.31107      307.91556      169455.92      6.8838352      102          
   4070000   1258089.8      685.10298      1257404.7      0.24549523     222.55668      292.72035      302.29448      302.33207      305.12269      169463.24     -1.561337       101          
   4071000   1258075.4      675.33458      1257400.1      0.24549523     219.3834       310.17707      295.33012      301.05218      303.03722      169438.74      12.05122       106          
   4072000   1258090.2      683.14961      1257407.1      0.24549523     221.92212      288.08938      299.41416      305.30421      301.41742      169445.42     -10.660538      95           
   4073000   1258083.9      677.6148       1257406.3      0.24549523     220.12413      263.27023      301.28835      296.24141      300.73972      169424.32      20.450517      97           
   4074000   1258083.8      681.65944      1257402.1      0.24549523     221.43804      258.74149      301.8524       300.80333      299.73226      169447.77     -5.2998358      102          
   4075000   1258086.6      685.84717      1257400.7      0.24549523     222.79843      258.21098      303.35125      302.6614       303.7769       169459.9       17.105658      105          
   4076000   1258074.1      678.4753       1257395.6      0.24549523     220.40367      295.04991      297.9862       300.56201      305.39699      169428.96     -12.90078       107          
   4077000   1258087.5      682.55149      1257405        0.24549523     221.72782      288.90668      302.48198      298.33544      307.3107       169481.14      23.741124      96           
   4078000   1258079.8      678.87921      1257400.9      0.24549523     220.53488      319.3439       298.37617      299.88391      306.14315      169423.69     -14.558322      99           
   4079000   1258085.3      680.92953      1257404.4      0.24549523     221.20093      290.32422      300.76661      299.97906      303.50372      169480.35      18.874821      108          
   4080000   1258087.1      683.20494      1257403.9      0.24549523     221.9401       277.42214      304.42557      298.42193      299.80515      169460.62     -15.893508      102          
   4081000   1258088.6      686.85156      1257401.7      0.24549523     223.12471      299.3668       303.39083      304.8437       297.13027      169466.34      20.628126      101          
   4082000   1258096.9      687.21725      1257409.7      0.24549523     223.2435       263.13661      305.38668      302.95905      296.72269      169457.46     -12.769743      98           
   4083000   1258086.6      677.34691      1257409.3      0.24549523     220.03711      305.44687      301.01782      296.47825      297.62143      169434.75      12.548698      96           
   4084000   1258086.7      683.48576      1257403.2      0.24549523     222.03132      301.70915      304.46269      298.12182      300.66193      169470.91      5.5803329      89           
   4085000   1258077.6      676.75941      1257400.9      0.24549523     219.84626      321.41747      297.37249      299.54221      303.21491      169430.38     -9.8720996      95           
   4086000   1258088.1      683.73956      1257404.4      0.24549523     222.11377      271.40155      301.53111      302.05632      305.22551      169455.16      30.474277      90           
   4087000   1258086        682.32528      1257403.7      0.24549523     221.65434      267.48483      300.87145      301.46439      304.71649      169435.11     -27.333398      84           
   4088000   1258090.7      685.90536      1257404.8      0.24549523     222.81733      295.78994      303.04722      302.8594       302.36036      169482.38      33.801133      92           
   4089000   1258095        687.35923      1257407.6      0.24549523     223.28962      322.42025      305.32045      301.51619      299.77664      169446.47     -33.848555      96           
   4090000   1258082.5      672.71874      1257409.8      0.24549523     218.53364      347.29237      295.87871      297.99395      297.28046      169473.99      39.558532      97           
   4091000   1258080.2      679.76128      1257400.4      0.24549523     220.82142      295.64442      300.94623      299.89314      297.00012      169451.84     -28.801804      91           
   4092000   1258081        677.87626      1257403.1      0.24549523     220.20907      302.33268      296.46275      303.88901      298.25551      169474.1       17.069778      91           
   4093000   1258071.9      671.12799      1257400.7      0.24549523     218.01688      327.08571      295.46607      296.12986      300.41807      169451.53     -0.11691537     93           
   4094000   1258076.8      673.7606       1257403        0.24549523     218.87209      304.80098      297.43388      296.133        302.63587      169437.18     -9.9386543      90           
   4095000   1258075.4      680.91292      1257394.5      0.24549523     221.19553      286.26924      299.01324      302.28556      304.66549      169470.16      27.305752      83           
   4096000   1258074.5      675.85466      1257398.7      0.24549523     219.55235      291.64127      298.12605      297.18977      305.15722      169388.35     -22.405398      93           
   4097000   1258076.2      678.65594      1257397.6      0.24549523     220.46235      306.86596      298.42436      300.40995      303.58655      169502.89      37.880113      95           
   4098000   1258084.2      678.53587      1257405.6      0.24549523     220.42334      314.34624      300.43566      297.5345       301.89762      169394.45     -28.985193      97           
   4099000   1258079        669.97047      1257409        0.24549523     217.64086      326.40911      297.34231      292.20593      299.20199      169486.58      30.527871      106          
   4100000   1258078.5      679.22114      1257399.3      0.24549523     220.64596      279.27538      301.30714      298.34678      299.32503      169430.54     -19.02087       105          
   4101000   1258080.7      671.36994      1257409.3      0.24549523     218.09548      250.38046      294.79805      298.92022      299.4135       169466.64      16.17949       103          
   4102000   1258075.9      680.27412      1257395.6      0.24549523     220.98802      241.77048      300.56585      300.58534      302.31663      169452.08      3.2343685      105          
   4103000   1258076.1      677.72654      1257398.4      0.24549523     220.16043      290.0482       299.26739      298.62426      302.28344      169409.35      0.12892571     112          
   4104000   1258082        682.34881      1257399.7      0.24549523     221.66198      278.38679      303.11777      298.01152      304.95803      169484.32      22.415543      109          
   4105000   1258083        680.41448      1257402.6      0.24549523     221.03361      319.5413       298.36011      302.61202      303.16077      169399.35     -27.848689      111          
   4106000   1258075.7      677.15216      1257398.6      0.24549523     219.97384      328.33381      299.27242      297.53616      301.25776      169506.67      46.408921      106          
   4107000   1258068.2      675.63622      1257392.6      0.24549523     219.48139      297.85197      298.58434      297.62869      299.70358      169415.12     -33.863833      116          
   4108000   1258080        675.56993      1257404.5      0.24549523     219.45985      277.9763       296.53691      301.06376      299.39929      169486.11      31.741652      114          
   4109000   1258070.1      677.29391      1257392.8      0.24549523     220.01989      310.14934      298.32292      300.24439      298.11825      169444.77     -16.325826      105          
   4110000   1258078.8      673.47853      1257405.4      0.24549523     218.78046      291.04446      293.59576      302.7027       299.19757      169435.62      7.1789465      90           
   4111000   1258082.5      681.10729      1257401.4      0.24549523     221.25867      304.14582      300.55977      300.84026      301.36542      169469.56      15.762286      102          
   4112000   1258077.4      681.39939      1257396        0.24549523     221.35356      318.89923      299.6655       302.1538       302.04843      169414.25     -26.907159      92           
   4113000   1258067.9      673.29448      1257394.6      0.24549523     218.72067      326.87061      295.93074      297.67205      302.02453      169499.09      41.25152       98           
   4114000   1258070.1      672.76813      1257397.3      0.24549523     218.54968      311.78609      295.67106      298.04354      300.54696      169372.8      -40.718769      96           
   4115000   1258079.6      677.11901      1257402.5      0.24549523     219.96308      295.8976       296.55701      302.57518      299.50933      169504.23      51.611725      93           
   4116000   1258079.2      677.80173      1257401.4      0.24549523     220.18486      303.68035      298.29928      301.18827      297.74264      169391.65     -38.406842      92           
   4117000   1258086.3      684.68619      1257401.6      0.24549523     222.42129      314.99865      302.20532      303.66951      297.36709      169477.86      38.691727      89           
   4118000   1258091.2      682.37974      1257408.8      0.24549523     221.67203      269.26791      302.09266      301.3044       298.57563      169419.13     -10.394395      82           
   4119000   1258092.8      685.87093      1257406.9      0.24549523     222.80615      313.14089      305.59553      299.58134      299.2318       169499.69     -2.0540788      85           
   4120000   1258085.1      685.96951      1257399.2      0.24549523     222.83817      279.76461      299.394        309.20399      300.13045      169452.38      28.230946      75           
   4121000   1258087.2      681.828        1257405.4      0.24549523     221.4928       325.32295      300.59093      301.86134      299.73258      169408.97     -28.745508      80           
   4122000   1258080        681.15823      1257398.8      0.24549523     221.27522      261.83557      302.08812      299.58382      299.88999      169529.75      46.844278      81           
   4123000   1258090.5      681.31972      1257409.1      0.24549523     221.32768      300.33333      301.15486      301.36512      297.24987      169392.06     -37.032688      85           
   4124000   1258077.1      672.86891      1257404.2      0.24549523     218.58242      295.57618      295.70707      299.62498      295.77579      169517.28      35.160221      83           
   4125000   1258079.4      678.69668      1257400.7      0.24549523     220.47558      276.45959      300.14106      300.55474      295.09002      169424.32     -13.835708      83           
   4126000   1258086.9      681.23351      1257405.7      0.24549523     221.29968      286.47745      301.45156      301.33096      295.97241      169502.75      6.4445693      80           
   4127000   1258072.7      671.17023      1257401.6      0.24549523     218.0306       289.07217      294.04274      300.23837      295.38341      169439.8       19.424078      92           
   4128000   1258074.7      677.14754      1257397.6      0.24549523     219.97234      275.56983      297.99357      301.19738      297.80218      169439.7      -27.631333      92           
   4129000   1258081.4      680.69149      1257400.7      0.24549523     221.1236       293.7638       300.70543      301.18501      297.90288      169495.09      37.48256       90           
   4130000   1258085.5      682.88925      1257402.6      0.24549523     221.83755      307.04156      302.81545      300.63363      297.78843      169405.4      -33.263473      89           
   4131000   1258073        675.63945      1257397.4      0.24549523     219.48244      268.64495      297.85019      299.79601      297.09861      169511.27      35.238085      83           
   4132000   1258079.6      678.92406      1257400.7      0.24549523     220.54945      320.76875      299.17995      301.76022      294.75089      169385.5      -19.20605       91           
   4133000   1258079.6      678.45918      1257401.1      0.24549523     220.39843      345.66506      300.04903      299.65535      294.01434      169517.95      23.02419       95           
   4134000   1258077.5      682.73261      1257394.8      0.24549523     221.78666      317.65791      302.96265      300.72575      294.88825      169431.9       3.5306802      90           
   4135000   1258087.2      677.8613       1257409.3      0.24549523     220.20421      295.45154      298.63701      301.40069      295.62027      169455.65     -8.4369013      95           
   4136000   1258087.5      685.25941      1257402.2      0.24549523     222.6075       298.56001      304.22776      301.83026      296.42088      169443.05      30.808537      93           
   4137000   1258076.8      674.21618      1257402.6      0.24549523     219.02009      306.18565      297.76219      297.21124      298.88255      169441.15     -28.208116      91           
   4138000   1258084        680.58776      1257403.4      0.24549523     221.0899       290.58535      298.93173      303.4283       299.0826       169501.94      46.377141      84           
   4139000   1258075.5      672.65862      1257402.9      0.24549523     218.51411      286.37277      296.90295      296.86177      298.81611      169393.67     -45.415715      77           
   4140000   1258073.8      676.37973      1257397.4      0.24549523     219.72292      273.80996      300.06238      296.47864      300.22863      169497.74      58.183121      82           
   4141000   1258080.4      672.11428      1257408.3      0.24549523     218.33728      289.42088      297.44381      295.20475      299.40318      169392.4      -37.428753      95           
   4142000   1258086.5      684.11658      1257402.4      0.24549523     222.23625      288.35923      301.21143      304.43296      298.80256      169478.19      35.817897      87           
   4143000   1258080.3      680.7294       1257399.6      0.24549523     221.13591      295.33861      299.08027      303.49051      298.51028      169411.65     -13.068546      87           
   4144000   1258070.4      672.25244      1257398.1      0.24549523     218.38216      292.11998      298.70132      293.66466      298.57552      169453.71     -1.9476164      89           
   4145000   1258077.5      682.74805      1257394.8      0.24549523     221.79168      336.28519      302.62511      300.39686      297.28106      169456.85      29.164042      89           
   4146000   1258092.6      682.21369      1257410.4      0.24549523     221.61809      326.92243      300.44761      303.19993      297.20326      169432.53     -35.001627      82           
   4147000   1258086.5      684.33934      1257402.2      0.24549523     222.30861      276.37151      304.58052      300.166        297.43461      169496.37      46.928161      76           
   4148000   1258076.7      675.64567      1257401        0.24549523     219.48446      266.59285      297.38809      300.03389      298.81643      169396.95     -45.268684      83           
   4149000   1258080.4      681.48128      1257398.9      0.24549523     221.38017      309.39167      300.24682      302.41655      298.71041      169521.18      52.605541      86           
   4150000   1258079.5      678.35599      1257401.2      0.24549523     220.36491      272.76257      299.22583      300.46333      299.09647      169390.35     -43.639437      78           
   4151000   1258083.4      683.55565      1257399.8      0.24549523     222.05403      260.47762      302.2811       301.81226      301.58231      169515.26      42.584529      86           
   4152000   1258082.9      678.72914      1257404.2      0.24549523     220.48613      241.65948      299.87385      299.46775      302.5967       169399.51     -12.39335       87           
   4153000   1258081.5      678.05635      1257403.4      0.24549523     220.26757      301.22212      298.41223      299.95532      302.82601      169484.46     -5.0053522      98           
   4154000   1258067.8      675.50888      1257392.3      0.24549523     219.44002      291.41005      298.15526      297.73713      301.51403      169466.64      30.710579      102          
   4155000   1258084.2      680.74309      1257403.4      0.24549523     221.14036      288.5061       299.86313      302.15433      299.45282      169419.33     -43.315501      98           
   4156000   1258076.2      677.30517      1257398.9      0.24549523     220.02355      318.99825      299.56794      298.84316      295.96712      169473.34      59.186941      103          
   4157000   1258089        681.17582      1257407.9      0.24549523     221.28093      309.45938      304.22015      297.13347      294.57237      169402.53     -60.189584      101          
   4158000   1258079.4      679.88493      1257399.5      0.24549523     220.86159      323.564        301.18714      300.0512       293.92359      169491.54      65.083586      102          
   4159000   1258076.5      674.8086       1257401.7      0.24549523     219.21254      310.90643      297.22424      299.97039      293.78602      169374.26     -52.440546      99           
   4160000   1258078.5      676.29422      1257402.2      0.24549523     219.69514      329.18567      300.22573      296.80113      295.25702      169529.53      42.868722      98           
   4161000   1258079.1      680.18794      1257398.9      0.24549523     220.96002      290.10744      296.63483      306.94359      296.97878      169419.62     -19.430317      80           
   4162000   1258079.6      676.4587       1257403.2      0.24549523     219.74857      311.73699      296.84943      301.61586      297.56882      169480.51      9.1558517      88           
   4163000   1258078.1      675.5304       1257402.6      0.24549523     219.44701      245.31814      298.33583      298.78856      298.676        169462.87      21.919213      79           
   4164000   1258073.9      676.69778      1257397.3      0.24549523     219.82624      254.7696       297.81873      301.40239      296.77179      169438.45     -33.754301      80           
   4165000   1258088        680.84068      1257407.2      0.24549523     221.17206      245.9912       300.90646      301.96463      297.28652      169483.62      52.505675      84           
   4166000   1258095        682.50336      1257412.5      0.24549523     221.71219      279.29208      302.89087      300.54595      296.99314      169408.01     -53.483256      86           
   4167000   1258081.8      676.31977      1257405.5      0.24549523     219.70344      249.07602      298.95267      299.07854      297.47972      169497.89      55.334254      80           
   4168000   1258079.2      681.76738      1257397.5      0.24549523     221.47311      251.56795      300.05509      303.93651      298.06291      169397.1      -41.737163      79           
   4169000   1258073.5      676.47103      1257397        0.24549523     219.75258      254.56809      298.94544      298.66551      299.69816      169477.04      34.90403       84           
   4170000   1258086        682.19636      1257403.8      0.24549523     221.61246      258.75122      300.82999      302.25191      301.73965      169422.46     -7.4408118      83           
   4171000   1258078.8      679.24406      1257399.6      0.24549523     220.6534       306.20268      299.83779      299.86158      300.48057      169472.42     -10.581128      84           
   4172000   1258071.3      677.44503      1257393.9      0.24549523     220.06898      333.44517      302.82803      293.31         298.28447      169468.72      37.465577      90           
   4173000   1258080.6      680.49155      1257400.1      0.24549523     221.05865      323.4911       301.29405      299.73303      297.44191      169432.64     -45.634731      96           
   4174000   1258078.5      680.62045      1257397.8      0.24549523     221.10052      296.89918      300.14824      302.31231      296.32573      169477.72      58.349412      85           
   4175000   1258081.2      675.50056      1257405.7      0.24549523     219.43732      305.1535       297.37761      300.38535      295.19504      169408.49     -51.069795      79           
   4176000   1258075.5      673.63386      1257401.9      0.24549523     218.83092      323.37423      296.87419      298.35264      296.06622      169497.39      47.321842      87           
   4177000   1258075.8      677.2187       1257398.6      0.24549523     219.99546      292.80729      297.03423      302.07575      299.30744      169435.09     -28.655851      90           
   4178000   1258074.6      676.81641      1257397.8      0.24549523     219.86478      292.37345      298.40785      299.16353      300.64827      169493.12      23.70168       90           
   4179000   1258082.7      687.78159      1257395        0.24549523     223.42683      274.63271      302.88699      305.93088      301.81008      169428.78     -4.3214661      84           
   4180000   1258080        682.19401      1257397.8      0.24549523     221.61169      262.48728      303.67459      298.14214      301.03968      169459.01     -8.0189382      85           
   4181000   1258073.7      673.50521      1257400.2      0.24549523     218.78913      299.1302       295.72986      299.49635      298.73658      169445.18      29.936476      101          
   4182000   1258082.8      677.23304      1257405.6      0.24549523     220.00012      280.1408       297.84805      301.39579      298.08992      169423.97     -32.888971      98           
   4183000   1258084.5      680.92472      1257403.6      0.24549523     221.19936      284.84655      303.0955       298.18407      297.36125      169485.49      46.649458      109          
   4184000   1258083.4      676.98307      1257406.4      0.24549523     219.91891      301.69253      299.63365      298.67418      295.77062      169439.26     -45.992342      110          
   4185000   1258079.2      679.21944      1257400        0.24549523     220.6454       295.5365       302.61972      296.28062      298.63807      169482.24      49.988108      103          
   4186000   1258076.3      677.05118      1257399.2      0.24549523     219.94104      264.54777      297.73229      300.98509      300.37906      169407.58     -35.596056      99           
   4187000   1258083.9      684.79792      1257399.1      0.24549523     222.45758      287.69006      301.50765      304.18734      301.44392      169496.69      34.598212      105          
   4188000   1258091.5      687.11739      1257404.4      0.24549523     223.21106      302.61786      304.90163      302.27671      299.26732      169406.2      -15.785533      108          
   4189000   1258079.3      681.28265      1257398        0.24549523     221.31564      278.46574      299.83492      303.01003      299.81328      169490.39      14.534847      114          
   4190000   1258085.2      675.05311      1257410.2      0.24549523     219.29196      262.23534      298.81537      297.79938      297.54163      169469.99      7.986068       119          
   4191000   1258080.1      680.0662       1257400        0.24549523     220.92047      261.26377      304.98818      295.16083      295.8348       169430.19     -13.497189      122          
   4192000   1258082.3      680.43328      1257401.9      0.24549523     221.03972      260.83078      300.7524       302.29855      294.53983      169468.55      25.240754      116          
   4193000   1258084.3      681.61376      1257402.7      0.24549523     221.4232       258.42964      302.35838      301.15902      295.51051      169446.02     -28.635572      122          
   4194000   1258076        682.3729       1257393.6      0.24549523     221.66981      272.11218      305.01385      297.8211       295.69274      169460.6       37.631882      131          
   4195000   1258081.5      677.03919      1257404.5      0.24549523     219.93715      283.65164      299.47202      299.56577      294.91383      169442.07     -33.120978      133          
   4196000   1258070.6      675.76156      1257394.8      0.24549523     219.5221       298.18499      297.71448      300.46049      294.35533      169471.82      36.988316      127          
   4197000   1258077.5      677.73639      1257399.7      0.24549523     220.16363      298.79395      299.06526      300.86324      294.35185      169481.87     -17.753233      133          
   4198000   1258076.8      673.42806      1257403.4      0.24549523     218.76406      293.80738      297.91028      297.11708      295.4662       169445.7       13.305502      131          
   4199000   1258083.9      686.3887       1257397.5      0.24549523     222.97435      287.03701      304.08251      303.9893       295.16488      169453.98      14.490357      131          
   4200000   1258089.2      682.91659      1257406.3      0.24549523     221.84643      292.75034      299.71064      306.26744      294.73227      169464.33     -27.624696      126          
   4201000   1258074.3      674.68275      1257399.6      0.24549523     219.17165      288.88634      301.62111      293.20086      295.31075      169460.55      44.137173      112          
   4202000   1258076.8      678.02118      1257398.7      0.24549523     220.25615      328.08601      301.32729      296.80083      296.06628      169428.06     -40.889153      118          
   4203000   1258081.3      684.8186       1257396.5      0.24549523     222.4643       302.34151      302.1047       304.31408      296.7866       169476.08      46.18552       110          
   4204000   1258087.3      685.27644      1257402.1      0.24549523     222.61303      310.29461      300.57816      306.93037      297.07572      169424.14     -29.400505      108          
   4205000   1258078.9      682.83434      1257396.1      0.24549523     221.81971      333.95496      301.81161      301.83493      296.34739      169463.03      26.47832       118          
   4206000   1258083.9      677.93086      1257406        0.24549523     220.22681      308.83285      299.75335      299.60756      295.6414       169414.68     -3.7541975      113          
   4207000   1258078        680.13755      1257397.8      0.24549523     220.94365      305.01068      302.14185      298.93083      295.08739      169477.72     -2.7378618      102          
   4208000   1258073.5      678.82062      1257394.6      0.24549523     220.51584      308.37726      302.69722      296.00396      296.63721      169435.15      16.587158      98           
   4209000   1258082.8      678.02563      1257404.8      0.24549523     220.25759      282.55409      300.48541      298.19745      298.68568      169444.03     -10.594295      85           
   4210000   1258084.7      683.27427      1257401.4      0.24549523     221.96262      300.06537      303.00418      300.43575      299.32396      169482.11      27.323736      87           
   4211000   1258083.6      678.44166      1257405.1      0.24549523     220.39274      296.80463      298.33         301.43639      300.03824      169421.71     -23.271604      93           
   4212000   1258079.8      679.11434      1257400.7      0.24549523     220.61126      306.49233      301.45294      297.63773      298.98698      169465.27      31.627356      102          
   4213000   1258076.1      675.4095       1257400.7      0.24549523     219.40774      321.61302      296.74793      300.48962      296.701        169430.8      -18.473121      110          
   4214000   1258077.7      674.5801       1257403.1      0.24549523     219.13831      300.6021       298.61183      297.59429      294.44855      169477.45      14.018107      110          
   4215000   1258083.7      679.82955      1257403.9      0.24549523     220.8436       299.45489      297.25303      306.42447      293.33031      169426.58      12.307677      107          
   4216000   1258080        680.02544      1257400        0.24549523     220.90723      322.89814      299.85959      302.49689      292.90318      169426.92     -16.073798      103          
   4217000   1258097.6      688.82404      1257408.8      0.24549523     223.76547      311.50914      304.92679      305.01757      296.17997      169485.5       32.577453      109          
   4218000   1258088        682.02264      1257406        0.24549523     221.55603      263.09294      302.24424      300.29182      300.4951       169391.63     -38.791031      97           
   4219000   1258078.8      676.62526      1257402.2      0.24549523     219.80268      284.56891      299.8549       296.20721      303.31778      169488.24      47.917968      109          
   4220000   1258073.8      679.2346       1257394.6      0.24549523     220.65033      284.72596      301.14824      297.50219      303.11233      169415.87     -30.01043       102          
   4221000   1258077.7      683.28969      1257394.4      0.24549523     221.96763      286.11329      300.05814      304.52488      301.46426      169480.66      28.404067      95           
   4222000   1258087.1      685.20373      1257401.9      0.24549523     222.58941      278.98938      301.09044      306.63525      296.91589      169409.92     -10.465493      100          
   4223000   1258086.4      679.97072      1257406.5      0.24549523     220.88946      293.99932      303.766        296.63119      294.58036      169443.92      4.6751511      103          
   4224000   1258085.8      676.20998      1257409.6      0.24549523     219.66777      321.65989      296.80738      302.31531      293.47053      169450.38      10.555378      92           
   4225000   1258084.3      677.80282      1257406.5      0.24549523     220.18521      331.25168      298.91357      300.74135      293.96706      169403.74     -19.477836      88           
   4226000   1258081.4      676.56931      1257404.9      0.24549523     219.78451      278.93046      297.79516      301.32634      295.67501      169465.29      39.184783      78           
   4227000   1258084.3      680.07771      1257404.2      0.24549523     220.92421      300.09024      299.72837      301.96546      297.22314      169462.55     -36.471662      85           
   4228000   1258080        678.44005      1257401.6      0.24549523     220.39222      341.9323       298.36788      300.91064      298.97542      169479.52      47.896134      92           
   4229000   1258072.6      672.45065      1257400.2      0.24549523     218.44655      340.07807      294.98528      298.30183      300.23676      169412.3      -34.505589      102          
   4230000   1258079.7      676.82304      1257402.9      0.24549523     219.86693      302.20453      299.75221      297.49061      298.83878      169494.78      35.401233      94           
   4231000   1258084.9      680.73349      1257404.1      0.24549523     221.13724      306.6279       301.90776      299.60528      296.5194       169387.08     -18.875489      96           
   4232000   1258087.6      683.24087      1257404.3      0.24549523     221.95177      306.87141      302.87939      301.73631      294.52453      169484.15      17.346038      100          
   4233000   1258082.8      677.68572      1257405.1      0.24549523     220.14717      315.85127      300.02838      299.20055      294.07743      169438.8      -6.0674166      94           
   4234000   1258083.2      679.15827      1257404.1      0.24549523     220.62553      284.21129      300.93969      299.81309      295.16453      169492.13      3.0533962      91           
   4235000   1258081.5      681.57134      1257400        0.24549523     221.40942      320.5715       302.93439      298.83807      296.69417      169459.2       8.062632       90           
   4236000   1258081        682.24611      1257398.7      0.24549523     221.62862      312.65238      302.81173      299.35786      299.08148      169452.08     -11.063468      85           
   4237000   1258077.2      679.59912      1257397.6      0.24549523     220.76874      283.34424      298.19579      303.20855      299.9573       169470.06      25.476444      87           
   4238000   1258081.3      682.60064      1257398.7      0.24549523     221.74379      264.8601       301.00938      302.97055      299.83083      169415.81     -16.129705      90           
   4239000   1258087.2      681.61618      1257405.5      0.24549523     221.42399      260.27914      300.02311      303.93171      297.51432      169489.41      26.958585      91           
   4240000   1258078.4      679.09805      1257399.3      0.24549523     220.60597      291.03142      301.77475      298.58294      294.41626      169406.5      -13.894898      86           
   4241000   1258072.2      676.85317      1257395.3      0.24549523     219.87672      301.1273       300.17399      298.58699      292.58574      169482.56      21.094725      83           
   4242000   1258074.6      671.43624      1257403.2      0.24549523     218.11702      338.6582       296.38388      297.32664      291.65574      169416        -11.572711      91           
   4243000   1258074.1      669.22209      1257404.9      0.24549523     217.39775      272.84089      295.71713      295.88856      294.39957      169472.56      17.854097      86           
   4244000   1258085.5      676.92353      1257408.6      0.24549523     219.89957      267.57631      301.4016       296.22153      296.68851      169451.93     -2.1003895      95           
   4245000   1258070.3      676.38285      1257393.9      0.24549523     219.72393      287.84204      297.94153      300.10791      298.30309      169461.5       6.4432625      102          
   4246000   1258066.9      667.76569      1257399.2      0.24549523     216.92464      273.50898      295.07793      293.98188      298.34706      169471.53      3.38779        105          
   4247000   1258079.2      679.59343      1257399.6      0.24549523     220.76689      287.92011      298.11166      303.7569       298.19069      169420.87      4.5467323      99           
   4248000   1258073.8      675.70006      1257398.1      0.24549523     219.50213      280.56697      300.04598      296.87069      295.40227      169445.56      1.1663244      98           
   4249000   1258087.7      682.11527      1257405.6      0.24549523     221.58612      271.26057      301.65832      302.94259      293.60717      169434.09      11.885894      90           
   4250000   1258084.7      687.04116      1257397.7      0.24549523     223.1863       272.45968      307.28794      300.727        293.1177       169481.56     -8.3399468      92           
   4251000   1258085.1      676.71341      1257408.4      0.24549523     219.83132      278.48365      299.03791      300.44588      292.5528       169415.28      22.244254      91           
   4252000   1258079.6      681.92726      1257397.7      0.24549523     221.52504      294.89306      302.35889      301.34191      293.53556      169456.2      -16.788975      105          
   4253000   1258072.5      671.63972      1257400.9      0.24549523     218.18312      318.26764      298.16286      294.19689      295.08903      169418.8       21.684432      113          
   4254000   1258080        676.54018      1257403.5      0.24549523     219.77504      322.72857      300.19794      296.06271      298.95383      169458.31     -17.11849       114          
   4255000   1258081.8      680.71673      1257401.1      0.24549523     221.1318       259.61852      299.98137      302.19684      300.58564      169442.12      19.187288      109          
   4256000   1258080.4      678.06936      1257402.4      0.24549523     220.2718       256.88725      298.64065      301.1368       299.88439      169456.38     -13.062643      109          
   4257000   1258086.3      684.04045      1257402.3      0.24549523     222.21151      291.4552       300.6642       305.89783      296.38852      169462.32      20.004684      105          
   4258000   1258076.3      677.65395      1257398.7      0.24549523     220.13685      286.54243      298.81698      301.39536      294.21364      169421.49     -7.5745886      106          
   4259000   1258078.2      678.73564      1257399.5      0.24549523     220.48824      285.80685      296.4447       306.42669      293.59989      169497.19      11.236302      103          
   4260000   1258075.3      677.40782      1257397.9      0.24549523     220.05689      284.37659      300.03312      299.75935      292.45735      169410.09      2.5261999      103          
   4261000   1258073        678.28538      1257394.8      0.24549523     220.34197      271.65742      300.52512      299.7409       294.42042      169489.82     -1.1707329      100          
   4262000   1258076.2      678.65373      1257397.5      0.24549523     220.46163      305.16906      302.01076      297.14234      295.62845      169453.27      15.630958      102          
   4263000   1258085.3      685.32085      1257400        0.24549523     222.62746      274.36062      301.91829      305.68184      296.77526      169427.16     -17.775465      103          
   4264000   1258067.5      666.74042      1257400.8      0.24549523     216.59158      262.07181      294.24608      294.5552       296.49955      169499.43      27.842994      92           
   4265000   1258078.7      681.99647      1257396.7      0.24549523     221.54753      264.84872      302.77616      300.36986      296.75115      169426.16     -25.518674      90           
   4266000   1258072.3      674.42237      1257397.8      0.24549523     219.08707      267.32575      300.46662      294.85093      295.37705      169470.54      38.023396      83           
   4267000   1258082.2      680.54259      1257401.7      0.24549523     221.07523      284.04229      300.05155      302.76538      295.51793      169436.18     -32.912468      84           
   4268000   1258081.6      677.92113      1257403.7      0.24549523     220.22364      277.11518      297.76299      302.93011      296.02853      169485.92      34.638019      87           
   4269000   1258076.8      673.76621      1257403.1      0.24549523     218.87391      296.8466       295.37174      301.17415      295.93155      169436.68     -19.2652        86           
   4270000   1258075        676.20239      1257398.8      0.24549523     219.66531      276.6338       297.47702      301.12533      296.56784      169481.43      16.450195      92           
   4271000   1258087.6      680.66603      1257406.9      0.24549523     221.11533      299.2101       299.06657      303.81989      296.85283      169452.66     -2.1175115      95           
   4272000   1258084        678.27752      1257405.8      0.24549523     220.33942      324.59167      299.15503      300.69664      295.65993      169426.77     -10.220445      103          
   4273000   1258076        675.20556      1257400.8      0.24549523     219.34149      299.57859      299.2348       297.53544      294.21835      169483.35      28.13248       108          
   4274000   1258081.4      678.62662      1257402.8      0.24549523     220.45282      302.89876      300.39778      299.96299      294.04679      169446.68     -27.540445      101          
   4275000   1258084.6      673.97786      1257410.6      0.24549523     218.94267      296.28617      295.97502      300.91119      294.51349      169447.01      33.599165      94           
   4276000   1258081.1      677.62653      1257403.5      0.24549523     220.12794      286.05106      298.91108      300.65331      296.18181      169423.96     -28.401743      94           
   4277000   1258080.2      676.64592      1257403.5      0.24549523     219.80939      279.96116      299.95071      297.3209       299.00656      169487.54      32.757392      96           
   4278000   1258088.6      683.8214       1257404.8      0.24549523     222.14036      311.41543      302.11833      302.67981      297.78152      169433.4      -26.506208      95           
   4279000   1258090.9      685.29732      1257405.6      0.24549523     222.61981      269.82515      305.57839      299.61915      298.8671       169481.96      29.094544      94           
   4280000   1258078.3      678.18514      1257400.1      0.24549523     220.30941      263.66735      299.7344       300.60555      295.89758      169433.24     -15.768193      99           
   4281000   1258080.3      676.85598      1257403.5      0.24549523     219.87763      299.64669      299.00128      299.97567      294.56975      169482.75      16.090825      93           
   4282000   1258083.8      680.36646      1257403.4      0.24549523     221.01801      327.23773      302.43623      298.9307       293.13407      169442.15     -7.8817687      99           
   4283000   1258088.4      686.38069      1257402        0.24549523     222.97174      297.57247      304.80093      303.06281      293.79853      169454.84      5.6593874      87           
   4284000   1258086.6      683.86169      1257402.8      0.24549523     222.15344      292.93514      303.19139      302.69333      292.88589      169485.08      12.519602      81           
   4285000   1258095.3      686.46159      1257408.8      0.24549523     222.99803      296.76739      304.68893      303.24008      294.06864      169414.89     -13.923881      79           
   4286000   1258079.9      679.57718      1257400.3      0.24549523     220.76161      269.86146      300.56761      300.80558      296.05333      169489.13      26.518301      79           
   4287000   1258074.1      675.22057      1257398.9      0.24549523     219.34636      307.88986      298.57599      297.65363      297.19099      169409.18     -20.702513      88           
   4288000   1258088.2      682.75308      1257405.4      0.24549523     221.79331      302.02359      302.41792      301.03191      297.89107      169494.64      24.874611      88           
   4289000   1258082.6      678.21747      1257404.4      0.24549523     220.31991      290.39474      300.76917      298.03289      298.13819      169403.26     -17.006585      91           
   4290000   1258088.7      682.9438       1257405.8      0.24549523     221.85527      307.75786      301.45627      303.3497       295.0722       169470.62      14.475591      106          
   4291000   1258085.1      677.96035      1257407.2      0.24549523     220.23639      316.96086      299.2863       300.63381      293.98374      169433.54     -6.5741354      102          
   4292000   1258090.9      683.76166      1257407.1      0.24549523     222.12095      323.53243      303.0952       302.15714      292.87929      169475.47      8.6050816      116          
   4293000   1258079.2      674.30852      1257404.9      0.24549523     219.05008      298.97255      299.92467      295.79177      292.74389      169444.2       3.9805998      110          
   4294000   1258081.7      686.23564      1257395.4      0.24549523     222.92463      283.8208       309.81664      295.2853       294.81764      169431.34     -2.6578803      104          
   4295000   1258088.7      681.34956      1257407.3      0.24549523     221.33738      297.67908      302.15253      300.57538      294.83175      169469.52      19.515561      102          
   4296000   1258077.3      673.34714      1257404        0.24549523     218.73778      291.24855      301.86297      290.81283      296.35628      169427.8      -19.26878       101          
   4297000   1258075.4      677.71562      1257397.7      0.24549523     220.15688      307.92864      299.40502      299.36559      297.54276      169486.9       32.328466      97           
   4298000   1258079.4      681.73864      1257397.6      0.24549523     221.46377      285.27348      304.09098      297.7666       297.12837      169411.38     -28.337201      91           
   4299000   1258085        680.5527       1257404.4      0.24549523     221.07851      251.85571      303.07739      298.18936      297.46643      169475.29      34.102658      94           
   4300000   1258087.4      685.36954      1257402        0.24549523     222.64327      276.37868      302.76992      304.26612      297.40583      169429.41     -19.519285      107          
   4301000   1258076.5      679.40252      1257397.1      0.24549523     220.70488      270.66523      302.95262      296.97288      296.41062      169444.77      17.780038      97           
   4302000   1258082.3      679.75278      1257402.5      0.24549523     220.81866      292.91105      300.55065      300.93446      295.43402      169467.96      6.6478597      92           
   4303000   1258083.6      681.80993      1257401.8      0.24549523     221.48693      308.44341      302.22008      300.85951      294.55996      169417.22     -11.142356      91           
   4304000   1258076.6      675.64373      1257401        0.24549523     219.48383      294.08447      297.73889      299.92963      296.04157      169507.26      28.382394      84           
   4305000   1258073        674.18466      1257398.8      0.24549523     219.00985      289.37965      297.69733      297.84791      297.61586      169403.52     -29.181836      91           
   4306000   1258078.8      674.51833      1257404.2      0.24549523     219.11824      332.63534      294.70187      301.66393      299.22312      169502.53      43.751903      101          
   4307000   1258080.1      678.14211      1257402        0.24549523     220.29543      302.71063      298.56967      301.02532      298.2971       169405.97     -38.547857      98           
   4308000   1258072        680.06194      1257391.9      0.24549523     220.91909      297.35111      299.44195      302.24474      297.96462      169473.71      46.80519       96           
   4309000   1258081.6      677.57069      1257404        0.24549523     220.1098       272.60137      298.52417      300.85624      298.30886      169470.32     -40.950493      99           
   4310000   1258072.5      676.30583      1257396.2      0.24549523     219.69891      246.08948      296.41407      302.7806       298.58836      169419.57      38.824567      97           
   4311000   1258067.5      669.54738      1257397.9      0.24549523     217.50342      233.07309      296.77472      294.25544      297.7323       169469.38     -14.450482      88           
   4312000   1258081.6      679.46649      1257402.1      0.24549523     220.72566      268.2414       300.66141      299.69094      299.66494      169447.85      9.2608719      101          
   4313000   1258079.5      678.19689      1257401.3      0.24549523     220.31323      290.79116      297.71352      301.86564      300.86442      169482.18      9.9931948      103          
   4314000   1258076.3      681.16855      1257395.1      0.24549523     221.27857      294.02266      302.53571      298.07718      301.1991       169396.05     -11.74266       106          
   4315000   1258068.6      675.18133      1257393.4      0.24549523     219.33362      297.18001      300.43641      293.98312      300.8766       169474.62      27.757528      108          
   4316000   1258081.1      682.69636      1257398.4      0.24549523     221.77489      292.82044      302.43136      300.68387      299.41585      169451.73     -25.047345      110          
   4317000   1258076.3      677.48653      1257398.8      0.24549523     220.08246      292.7599       303.84027      292.71045      297.32719      169442.29      34.134407      110          
   4318000   1258079.1      681.61065      1257397.5      0.24549523     221.42219      270.07067      301.16836      302.42118      296.48179      169439.21     -20.356577      111          
   4319000   1258084.4      682.36261      1257402        0.24549523     221.66647      268.39494      302.56178      301.24796      296.51595      169495.78      20.736969      111          
   4320000   1258084.8      684.85866      1257400        0.24549523     222.47731      273.77251      304.62612      301.07709      296.614        169439.74     -2.3128745      101          
   4321000   1258089.3      683.14269      1257406.2      0.24549523     221.91988      302.26433      299.9096       305.4059       297.34599      169427.25     -1.4421417      114          
   4322000   1258081.6      682.32479      1257399.2      0.24549523     221.65418      274.21878      301.9858       300.94817      300.19147      169500.53      14.183639      103          
   4323000   1258084.3      681.76618      1257402.6      0.24549523     221.47272      267.47561      304.27224      296.48671      301.91819      169467.48     -14.624311      98           
   4324000   1258082.4      678.70352      1257403.7      0.24549523     220.4778       271.92203      301.74743      296.40992      302.02764      169455.82      22.420432      98           
   4325000   1258086.2      683.84482      1257402.4      0.24549523     222.14796      298.60868      300.40477      304.27889      302.16917      169421.93     -15.635662      104          
   4326000   1258077.5      674.7023       1257402.8      0.24549523     219.178        272.4067       296.74805      299.0215       302.01274      169469.99      23.397256      99           
   4327000   1258084.3      679.9998       1257404.3      0.24549523     220.8989       300.03838      298.9784       302.08952      300.73615      169443.22     -18.511925      102          
   4328000   1258083        678.56048      1257404.5      0.24549523     220.43134      282.35001      298.47107      301.3854       300.6543       169445.76      22.596783      101          
   4329000   1258070.5      671.51325      1257399        0.24549523     218.14204      273.88943      296.77245      295.62902      299.84262      169454.83     -12.26806       106          
   4330000   1258070.8      676.29031      1257394.5      0.24549523     219.69387      272.80184      297.43672      300.2822       300.7433       169433.29      14.162225      102          
   4331000   1258069.7      673.95759      1257395.8      0.24549523     218.93608      288.75445      295.87965      299.35447      301.2991       169433.62     -4.0849738      103          
   4332000   1258075.2      676.11793      1257399.1      0.24549523     219.63787      274.3058       299.81822      295.84464      302.97933      169429.34      5.6083827      96           
   4333000   1258076.4      681.43435      1257394.9      0.24549523     221.36492      277.89279      301.47902      299.53113      304.05802      169465.93      1.5456029      93           
   4334000   1258083.6      681.49536      1257402.1      0.24549523     221.38474      261.76222      300.79899      300.78494      304.19244      169451.64     -0.23312742     92           
   4335000   1258080.6      681.35023      1257399.2      0.24549523     221.33759      257.91897      300.98895      300.71058      303.10486      169434.38      11.834784      93           
   4336000   1258085.6      680.82554      1257404.8      0.24549523     221.16715      260.11453      299.46363      302.53616      302.22064      169462.34     -9.9912973      89           
   4337000   1258091.8      682.11521      1257409.7      0.24549523     221.5861       258.09163      302.97817      299.40965      300.0492       169450.8       25.613895      84           
   4338000   1258085.5      684.98963      1257400.5      0.24549523     222.51986      250.91238      305.50764      299.63172      298.46647      169460.31     -17.464091      86           
   4339000   1258079.7      678.58409      1257401.1      0.24549523     220.43901      250.13259      300.41017      299.68803      297.52295      169481.06      15.707497      85           
   4340000   1258080.4      676.68824      1257403.7      0.24549523     219.82314      259.17471      297.86737      300.53959      299.65837      169447.06     -10.683238      88           
   4341000   1258079.1      674.72217      1257404.4      0.24549523     219.18446      261.11354      296.68895      299.41103      301.34511      169454.19      15.628814      87           
   4342000   1258079.9      686.15641      1257393.7      0.24549523     222.89889      258.57421      303.18696      303.36772      302.55432      169433.17     -4.5239464      81           
   4343000   1258093.1      686.17193      1257406.9      0.24549523     222.90393      247.91007      305.13736      300.46296      303.08854      169469.74      6.8267289      83           
   4344000   1258086.8      680.03204      1257406.7      0.24549523     220.90938      277.44043      298.38371      302.52185      303.79743      169447.75      7.0732197      89           
   4345000   1258081.5      674.74502      1257406.7      0.24549523     219.19188      295.18126      294.37948      302.37591      301.58212      169453.26     -7.0588576      79           
   4346000   1258080.5      684.46896      1257396.1      0.24549523     222.35072      277.48898      302.69399      302.45576      300.17769      169492.94      17.728328      88           
   4347000   1258077.9      674.36868      1257403.5      0.24549523     219.06963      288.26742      299.00306      295.75783      299.02403      169428.06     -15.418886      93           
   4348000   1258083.8      681.39286      1257402.4      0.24549523     221.35144      271.56191      299.57566      303.9062       298.34004      169460.59      22.879184      81           
   4349000   1258089.1      682.21635      1257406.9      0.24549523     221.61895      269.44709      303.19812      299.31974      298.95142      169447.92     -21.376071      79           
   4350000   1258077.5      671.51511      1257406        0.24549523     218.14264      262.97946      295.60672      297.31405      300.23199      169478.28      27.118859      78           
   4351000   1258080.5      680.99341      1257399.5      0.24549523     221.22168      293.86469      299.2161       302.79355      302.00753      169404.9      -14.074343      89           
   4352000   1258079.7      681.64498      1257398        0.24549523     221.43334      319.72774      299.48891      302.6547       302.20241      169470.46      16.103777      97           
   4353000   1258086.8      680.54745      1257406.2      0.24549523     221.07681      329.94805      303.00797      296.14013      301.18172      169431.69     -7.597047       94           
   4354000   1258081.7      681.77412      1257399.9      0.24549523     221.47529      316.64407      302.29166      299.01278      300.83386      169423.9       9.1066296      95           
   4355000   1258068.2      668.80164      1257399.4      0.24549523     217.26116      289.95591      295.42016      294.13799      299.50864      169464.42     -0.70094356     89           
   4356000   1258085.1      683.28603      1257401.8      0.24549523     221.96644      264.15672      302.80196      301.03206      299.96815      169440.67      1.7986296      90           
   4357000   1258090.7      684.506        1257406.2      0.24549523     222.36275      272.90439      302.88476      302.27491      300.31742      169463.26      10.08598       96           
   4358000   1258092.7      682.93096      1257409.8      0.24549523     221.8511       270.48103      301.83428      302.09626      299.90951      169439.03     -8.1226544      103          
   4359000   1258081.8      679.75011      1257402        0.24549523     220.81779      297.06351      303.71718      295.05218      299.40912      169486.89      18.967514      99           
   4360000   1258086.8      682.73367      1257404        0.24549523     221.78701      279.416        301.82524      301.56394      300.40758      169423.88     -13.470043      95           
   4361000   1258081.6      677.56323      1257404        0.24549523     220.10738      314.6038       297.27298      301.49108      300.45962      169465.24      22.520238      105          
   4362000   1258087.6      689.32614      1257398.3      0.24549523     223.92858      336.59133      304.55175      304.05497      302.81183      169440.18     -19.226679      99           
   4363000   1258076.1      676.86741      1257399.2      0.24549523     219.88134      323.31676      300.10431      295.89777      301.9317       169456.32      28.434081      90           
   4364000   1258080        681.24034      1257398.8      0.24549523     221.30189      318.53449      300.66688      300.51998      301.69571      169427.62     -14.17575       91           
   4365000   1258085.3      683.42137      1257401.9      0.24549523     222.01041      276.89376      301.35227      302.90791      301.33025      169454.14      21.295752      96           
   4366000   1258082.4      677.29111      1257405.1      0.24549523     220.01898      312.62719      298.69214      298.81934      301.41679      169457.18     -13.114581      95           
   4367000   1258084.2      679.99215      1257404.2      0.24549523     220.89642      306.45917      302.12759      297.43515      300.23243      169424.22      16.659302      99           
   4368000   1258088.1      683.09686      1257405        0.24549523     221.90499      305.65615      300.59939      303.00531      302.12958      169467.72      5.313317       94           
   4369000   1258082        679.63343      1257402.4      0.24549523     220.77989      306.49671      299.95675      299.94521      301.23108      169459.76     -2.9048025      87           
   4370000   1258082.8      685.06047      1257397.8      0.24549523     222.54287      317.76913      303.66022      300.92836      301.03169      169486.05      15.585673      94           
   4371000   1258077.6      676.35689      1257401.3      0.24549523     219.7155       297.61409      297.79554      299.62508      299.97965      169439.75     -18.954911      94           
   4372000   1258084        676.53799      1257407.5      0.24549523     219.77433      273.79222      300.31618      296.65876      298.87425      169477.57      20.660688      95           
   4373000   1258075.3      675.94845      1257399.3      0.24549523     219.58282      296.25577      301.25905      294.42718      298.11813      169451.92     -13.908562      91           
   4374000   1258080.4      679.1495       1257401.2      0.24549523     220.62268      308.11025      298.24334      302.7743       297.94378      169446.24      22.041816      102          
   4375000   1258092.3      685.219        1257407.1      0.24549523     222.59437      291.18663      302.30676      303.87879      299.72907      169433.33     -15.905366      92           
   4376000   1258088.9      684.01988      1257404.9      0.24549523     222.20483      289.41608      302.25643      302.39686      300.20539      169427.92      16.30107       94           
   4377000   1258086.2      686.66544      1257399.5      0.24549523     223.06425      284.16095      306.28615      299.59233      300.55308      169474.48      0.37089044     100          
   4378000   1258080.4      683.07872      1257397.4      0.24549523     221.89909      319.76272      304.02881      298.2773       299.58481      169417.37     -7.1900131      99           
   4379000   1258077.1      680.02147      1257397.1      0.24549523     220.90594      323.97813      302.34068      296.87374      299.94899      169479.48      21.422613      109          
   4380000   1258094.2      685.37411      1257408.8      0.24549523     222.64475      308.38603      302.54367      303.47455      299.77381      169452.62     -17.103627      89           
   4381000   1258078.1      675.27934      1257402.8      0.24549523     219.36546      318.39905      296.64701      299.66507      300.12188      169452.35      30.149492      100          
   4382000   1258084        676.58788      1257407.4      0.24549523     219.79054      315.18452      299.17282      297.94713      298.56056      169461.29     -21.059278      97           
   4383000   1258088.4      679.31853      1257409.1      0.24549523     220.67759      330.45517      298.55587      301.56197      300.10385      169447.35      24.087531      97           
   4384000   1258084.5      685.27378      1257399.3      0.24549523     222.61216      368.91967      304.10888      300.4452       298.4053       169441.31     -10.232994      95           
   4385000   1258085.6      684.31787      1257401.3      0.24549523     222.30163      309.9097       303.25614      300.48302      301.86038      169458.29      12.298868      88           
   4386000   1258070.4      673.84326      1257396.6      0.24549523     218.89894      292.15768      296.78915      297.21456      303.42559      169451.66      4.026472       96           
   4387000   1258070.3      676.00514      1257394.3      0.24549523     219.60123      314.02825      294.28625      303.40594      302.80653      169465.99      3.6717576      99           
   4388000   1258078.2      680.27172      1257397.9      0.24549523     220.98724      310.23152      302.52761      296.85092      301.03509      169443.07      3.6288199      96           
   4389000   1258078.9      679.89487      1257399        0.24549523     220.86482      284.28223      298.21212      303.55486      300.03147      169478.22      4.748515       91           
   4390000   1258084.5      678.24477      1257406.3      0.24549523     220.32878      273.55798      301.24823      297.3155       299.20092      169441.57     -0.78375787     94           
   4391000   1258085.9      683.52225      1257402.4      0.24549523     222.04318      279.96109      301.83718      303.31866      297.15009      169449.52      7.773096       96           
   4392000   1258081.1      676.43553      1257404.6      0.24549523     219.74105      318.68752      298.28432      299.32812      297.3884       169475.46      4.2482556      97           
   4393000   1258078.5      674.16639      1257404.3      0.24549523     219.00391      259.97742      298.22754      297.30476      298.20594      169448.68     -3.2781633      92           
   4394000   1258080        673.3886       1257406.6      0.24549523     218.75125      267.12512      298.35938      296.00982      298.3199       169463.77      7.4125376      96           
   4395000   1258080.4      678.6766       1257401.8      0.24549523     220.46906      251.2754       301.74609      297.51676      299.03172      169470.81      3.8659505      105          
   4396000   1258071.9      682.27163      1257389.6      0.24549523     221.63691      259.79524      304.63479      297.30734      299.45045      169453.69      0.28814137     100          
   4397000   1258076.6      674.52096      1257402.1      0.24549523     219.11909      298.70686      299.09631      295.74191      298.90224      169442.87      12.1876        101          
   4398000   1258088.6      680.73261      1257407.9      0.24549523     221.13696      277.61751      303.15842      297.46177      299.24256      169456.99     -7.289954       103          
   4399000   1258084.7      682.41988      1257402.2      0.24549523     221.68507      319.47472      299.92662      304.16258      297.60623      169466.5       17.048278      100          
   4400000   1258073.3      676.9442       1257396.3      0.24549523     219.90629      295.88976      295.77404      304.04448      297.59974      169447.93     -10.033778      103          
   4401000   1258072.7      673.79653      1257398.9      0.24549523     218.88376      321.44253      297.16471      297.94557      296.59039      169435.52      16.872225      107          
   4402000   1258078.1      675.77694      1257402.3      0.24549523     219.5271       307.45334      298.83899      298.24654      295.89515      169442.23     -10.140954      110          
   4403000   1258080.1      680.35158      1257399.8      0.24549523     221.01318      289.97794      298.84591      304.10478      296.1467       169453.1       15.19225       112          
   4404000   1258081.1      681.95386      1257399.1      0.24549523     221.53368      285.28356      303.81106      298.34069      297.43712      169449.07     -1.7452406      113          
   4405000   1258084.6      680.59973      1257404        0.24549523     221.09379      297.15758      300.53945      301.69366      296.32396      169444.45      1.4760314      98           
   4406000   1258075.7      668.0025       1257407.7      0.24549523     217.00156      281.30138      292.63593      298.4688       295.87323      169468.87      13.413691      104          
   4407000   1258062.4      670.75292      1257391.7      0.24549523     217.89504      267.9101       296.65699      295.77019      296.66954      169440.4      -4.1649699      95           
   4408000   1258069.2      670.9669       1257398.3      0.24549523     217.96455      283.56924      296.03221      296.53554      297.46061      169460.39      21.640421      98           
   4409000   1258079.9      683.1471       1257396.8      0.24549523     221.92131      276.52089      301.97009      302.45081      298.35265      169443.46     -11.556875      97           
   4410000   1258071.1      673.16512      1257397.9      0.24549523     218.67865      253.26271      296.32441      298.99979      298.27733      169442.06      17.758237      91           
   4411000   1258075.2      674.70856      1257400.5      0.24549523     219.18004      285.04856      298.92974      296.83106      297.09647      169442.41     -9.1235967      87           
   4412000   1258077.9      679.88083      1257398        0.24549523     220.86026      286.06643      299.07996      302.78802      297.72354      169448.73      9.844292       89           
   4413000   1258087.2      688.64289      1257398.5      0.24549523     223.70662      302.33418      304.12144      305.84493      297.36371      169447.46     -2.4355385      93           
   4414000   1258073.8      673.6425       1257400.2      0.24549523     218.83373      302.27992      296.42066      298.98959      297.32875      169444.61      6.3204531      96           
   4415000   1258084.3      680.11472      1257404.2      0.24549523     220.93624      312.63657      299.59549      301.93912      297.64798      169474.25     -0.46607704     93           
   4416000   1258081.8      678.89049      1257402.9      0.24549523     220.53854      305.36956      301.80034      297.10793      298.07296      169451.4       4.756851       95           
   4417000   1258078.6      675.88421      1257402.7      0.24549523     219.56195      272.57419      299.84249      296.53213      299.19031      169419.72      0.1003324      91           
   4418000   1258089.2      679.42425      1257409.7      0.24549523     220.71193      304.56901      300.7152       299.34835      298.31445      169470.19      6.9029609      91           
   4419000   1258071.4      670.88165      1257400.5      0.24549523     217.93686      319.39496      295.78943      296.18133      297.92647      169449.58      0.037747733    80           
   4420000   1258076.6      677.9819       1257398.6      0.24549523     220.24339      308.65792      300.6627       297.14934      299.90586      169455.6       8.5253741      80           
   4421000   1258077        675.61246      1257401.4      0.24549523     219.47367      317.14126      296.88797      299.70247      300.41418      169439.35     -4.7470898      82           
   4422000   1258073        676.09793      1257396.9      0.24549523     219.63137      323.00407      299.15193      296.96785      299.80154      169487.58      18.335192      86           
   4423000   1258075.5      677.83271      1257397.6      0.24549523     220.19492      262.48987      298.07992      301.36914      300.27374      169457.21     -7.4596344      80           
   4424000   1258085.2      684.47232      1257400.7      0.24549523     222.35181      278.52673      303.30815      301.63333      299.67135      169442.61      14.8213        81           
   4425000   1258078.2      675.50151      1257402.7      0.24549523     219.43763      330.21773      300.87237      294.05859      297.91172      169449.11      1.3418002      79           
   4426000   1258072.1      681.83598      1257390.3      0.24549523     221.49539      327.22648      301.52581      300.92695      297.96232      169446.08      2.2889313      86           
   4427000   1258083.1      680.73968      1257402.3      0.24549523     221.13926      300.9666       298.57174      304.07755      298.83045      169462.16      19.530112      89           
   4428000   1258078.3      673.33089      1257404.9      0.24549523     218.7325       300.60152      297.34415      296.98013      298.33271      169446.83     -26.584686      84           
   4429000   1258082.1      680.33972      1257401.7      0.24549523     221.00933      296.70241      301.3399       299.81965      297.7644       169477.2       44.658302      95           
   4430000   1258076.4      678.29668      1257398.1      0.24549523     220.34564      310.14754      299.06227      300.5525       297.56294      169412.19     -46.556154      99           
   4431000   1258075.6      677.0193       1257398.6      0.24549523     219.93068      279.72391      299.82601      298.20567      297.97586      169478.15      49.150231      102          
   4432000   1258083.5      682.7601       1257400.8      0.24549523     221.79559      283.58547      301.78146      302.1949       298.26581      169457.06     -37.911331      106          
   4433000   1258072.9      673.00469      1257399.9      0.24549523     218.62653      246.24324      295.50114      299.89127      299.24746      169436.63      38.856708      92           
   4434000   1258069.6      671.94289      1257397.6      0.24549523     218.2816       287.23481      295.99841      297.68674      297.66145      169451.21     -20.035936      104          
   4435000   1258076.6      677.03514      1257399.5      0.24549523     219.93583      287.45954      298.35222      300.31488      297.96302      169455.11      14.908103      98           
   4436000   1258079.6      676.85425      1257402.7      0.24549523     219.87707      295.61649      298.12104      300.35199      297.82131      169453.87      0.56651203     98           
   4437000   1258074.1      674.79042      1257399.3      0.24549523     219.20663      285.3693       296.85965      300.06949      296.9722       169440.73     -3.4113171      101          
   4438000   1258072.6      676.81576      1257395.8      0.24549523     219.86456      264.4682       298.97042      300.37616      294.60043      169443.27      14.517738      101          
   4439000   1258077.5      674.91789      1257402.6      0.24549523     219.24804      267.94176      300.81212      295.23487      294.51596      169467.49     -13.695382      100          
   4440000   1258077.3      674.35606      1257402.9      0.24549523     219.06553      296.51795      297.54848      299.34598      293.22081      169443.33      26.672621      100          
   4441000   1258074.7      677.47792      1257397.2      0.24549523     220.07967      270.60507      300.84642      298.49104      293.73746      169465.5      -19.751704      99           
   4442000   1258080        676.74742      1257403.2      0.24549523     219.84236      267.57758      298.68949      300.59352      294.80366      169467.12      26.829189      97           
   4443000   1258077.3      673.53574      1257403.8      0.24549523     218.79904      291.01474      301.49278      292.09593      294.69781      169430.32     -25.6135        93           
   4444000   1258082.8      678.24547      1257404.6      0.24549523     220.32901      319.20658      302.07116      296.73226      294.1265       169467.04      30.639043      99           
   4445000   1258075.2      676.23932      1257399        0.24549523     219.67731      288.88206      296.35561      303.33973      294.12602      169412.92     -17.907271      103          
   4446000   1258075.1      677.67752      1257397.4      0.24549523     220.14451      248.11827      299.87858      300.35538      294.61518      169479.03      18.275176      105          
   4447000   1258077.6      675.16378      1257402.4      0.24549523     219.32792      270.85217      297.86604      300.00396      294.22437      169447.41     -4.3649025      101          
   4448000   1258073        673.11175      1257399.9      0.24549523     218.66131      301.19778      299.73181      294.48886      293.15018      169462.31      3.4662585      91           
   4449000   1258075.5      674.61671      1257400.8      0.24549523     219.1502       271.12388      299.24332      297.55705      293.0187       169490.87      15.889557      96           
   4450000   1258074.3      674.88655      1257399.4      0.24549523     219.23786      320.92762      299.27037      297.3856       291.78937      169431.49     -19.115049      104          
   4451000   1258081        677.41097      1257403.6      0.24549523     220.05792      286.32335      300.17274      299.47563      292.67169      169446.6       35.084696      99           
   4452000   1258091.4      687.7448       1257403.7      0.24549523     223.41488      263.15359      303.37998      307.3965       293.80026      169424.12     -31.301591      97           
   4453000   1258082.1      676.34497      1257405.8      0.24549523     219.71163      268.70434      300.48885      297.32497      295.0458       169473.45      39.016275      100          
   4454000   1258077.7      679.96972      1257397.7      0.24549523     220.88913      275.27618      299.72356      302.86515      294.90918      169406.68     -30.494903      100          
   4455000   1258072.7      673.26676      1257399.4      0.24549523     218.71167      295.3299       298.31391      296.66108      294.02283      169501.54      31.507012      104          
   4456000   1258064.2      673.3538       1257390.8      0.24549523     218.73994      303.15038      298.34079      297.01738      292.44253      169417.25     -6.8109727      104          
   4457000   1258066.3      675.82398      1257390.5      0.24549523     219.54238      283.95249      301.69565      295.41142      292.09329      169467.96     -0.43497102     101          
   4458000   1258087.1      685.27944      1257401.8      0.24549523     222.614        304.64437      304.10161      303.19013      291.7354       169436         20.99416       99           
   4459000   1258079.2      675.74262      1257403.5      0.24549523     219.51595      297.53104      298.90554      299.2215       292.34874      169436.43     -18.246462      105          
   4460000   1258072.9      674.33614      1257398.5      0.24549523     219.05906      306.31805      297.70049      299.20326      292.06185      169468.55      32.33004       112          
   4461000   1258076.5      676.0475       1257400.5      0.24549523     219.61499      297.13257      298.27944      300.31844      293.11323      169407.97     -27.747689      114          
   4462000   1258073.2      675.01638      1257398.2      0.24549523     219.28003      303.99482      299.19723      297.43681      293.37444      169485.44      26.24743       123          
   4463000   1258077.1      677.624        1257399.4      0.24549523     220.12712      291.93552      300.78775      298.12414      294.99977      169430.43     -17.966218      118          
   4464000   1258084.8      682.88792      1257402        0.24549523     221.83711      279.93532      303.04881      301.6432       293.92741      169484.51      13.524477      102          
   4465000   1258084.7      679.31519      1257405.4      0.24549523     220.67651      280.28473      300.1273       301.90488      292.97464      169435         4.8757411      109          
   4466000   1258076.5      672.64244      1257403.9      0.24549523     218.50885      291.92466      296.50835      299.38509      291.29237      169450.09     -3.643756       121          
   4467000   1258077.8      675.84499      1257402        0.24549523     219.54921      262.08822      298.42694      301.16556      290.51202      169478         16.151504      111          
   4468000   1258073        668.54277      1257404.4      0.24549523     217.17707      289.50181      296.2183       295.31535      289.42715      169406.86     -16.497273      105          
   4469000   1258081.3      679.48466      1257401.8      0.24549523     220.73156      268.63187      300.33453      302.48216      291.14273      169472.71      23.600137      100          
   4470000   1258084.9      682.85435      1257402.1      0.24549523     221.82621      290.91344      303.17296      302.20138      290.2923       169448        -14.235876      103          
   4471000   1258076.7      673.45641      1257403.2      0.24549523     218.77327      283.82735      299            296.62432      291.8477       169467.22      14.633295      103          
   4472000   1258072.1      673.79232      1257398.3      0.24549523     218.88239      255.25957      301.81875      292.96201      292.66184      169440.2      -4.6352141      89           
   4473000   1258083.1      679.28999      1257403.8      0.24549523     220.66832      300.12615      301.88511      298.79394      293.39175      169488.73      7.7009704      94           
   4474000   1258072        673.12515      1257398.9      0.24549523     218.66566      296.49149      299.09147      295.11223      294.73833      169441.1       2.9254353      93           
   4475000   1258070.5      673.80871      1257396.7      0.24549523     218.88772      281.72034      296.42491      300.187        294.65762      169452.77      4.5867423      86           
   4476000   1258077.9      674.89465      1257403        0.24549523     219.24049      298.10467      298.2224       298.5914       294.62609      169438.69      7.7280015      92           
   4477000   1258075.7      679.22283      1257396.4      0.24549523     220.6465       311.79986      299.64758      301.82755      293.75087      169491.96      4.205924       88           
   4478000   1258081.1      673.14744      1257408        0.24549523     218.6729       314.39362      296.48273      298.71059      294.93172      169438.96      4.9136456      88           
   4479000   1258078.2      671.66192      1257406.5      0.24549523     218.19033      306.61927      296.66092      297.10123      293.62894      169431.94     -1.5716856      90           
   4480000   1258082.2      681.8412       1257400.4      0.24549523     221.49709      316.0363       302.34779      301.06844      293.0297       169501.49      10.007462      86           
   4481000   1258077.5      676.21575      1257401.3      0.24549523     219.66965      354.1462       300.47149      296.778        291.75435      169423.69     -8.6041089      94           
   4482000   1258085.4      684.42049      1257401        0.24549523     222.33497      289.64052      302.54312      304.56616      292.56003      169466.73      14.859121      85           
   4483000   1258084.7      675.91455      1257408.8      0.24549523     219.5718       266.48739      296.58248      303.0622       293.33722      169432.67     -2.7140169      83           
   4484000   1258075.3      675.11872      1257400.2      0.24549523     219.31328      309.25837      296.78656      301.03478      294.07874      169475.49      0.45460501     89           
   4485000   1258073.9      672.8706       1257401.1      0.24549523     218.58297      322.83804      295.01966      300.6679       294.31934      169446.95      7.0121927      85           
   4486000   1258080.3      677.2837       1257403        0.24549523     220.01657      330.65576      297.65293      301.7641       295.2976       169435.77      5.3787988      89           
   4487000   1258074.5      679.9944       1257394.5      0.24549523     220.89715      327.79288      299.04564      302.69626      296.83621      169483         4.3968741      76           
   4488000   1258081.8      680.11667      1257401.7      0.24549523     220.93687      308.42698      301.64836      299.32309      296.27455      169423.97     -3.7583814      71           
   4489000   1258082.1      679.92006      1257402.2      0.24549523     220.873        283.23474      301.89078      299.13966      295.76744      169489.98      13.831151      74           
   4490000   1258091.5      687.30457      1257404.2      0.24549523     223.27187      316.67504      304.05015      305.11556      293.79424      169439.88     -7.2036903      74           
   4491000   1258076.2      673.38911      1257402.8      0.24549523     218.75141      294.25271      298.05835      297.37877      293.41066      169443.75      18.572056      79           
   4492000   1258069.6      672.52709      1257397.1      0.24549523     218.47138      305.36131      296.67358      298.50698      292.54821      169443.3      -16.425161      86           
   4493000   1258066.8      671.76566      1257395        0.24549523     218.22403      276.49015      294.99536      300.39636      292.67865      169429.04      20.877432      86           
   4494000   1258079.6      673.15411      1257406.4      0.24549523     218.67507      273.30971      297.61867      297.46738      295.38231      169461.37     -14.262332      75           
   4495000   1258090.5      688.27327      1257402.2      0.24549523     223.58655      312.34635      303.70983      306.14892      296.21424      169424.1       19.781704      84           
   4496000   1258082.5      683.87795      1257398.6      0.24549523     222.15873      315.41274      304.27806      299.18557      298.83418      169471.41     -8.1092092      86           
   4497000   1258076.9      679.32266      1257397.6      0.24549523     220.67893      325.17356      301.79023      296.85083      299.96086      169434.94      5.4795524      89           
   4498000   1258084.6      685.61634      1257399        0.24549523     222.72344      333.14855      301.70972      305.0902       298.10507      169426.76      4.4647101      95           
   4499000   1258074        676.08918      1257397.9      0.24549523     219.62853      329.41853      296.73549      301.10751      297.4526       169454.74      1.2262743      91           
   4500000   1258085.2      685.92274      1257399.3      0.24549523     222.82298      333.29413      303.314        303.57542      296.16232      169439.34     -0.81276027     94           
   4501000   1258077.1      681.45655      1257395.6      0.24549523     221.37213      285.80874      301.34798      301.71961      296.20466      169451.12      12.122314      87           
   4502000   1258085.2      685.95345      1257399.3      0.24549523     222.83296      284.37791      304.09206      303.52138      294.81957      169448.39     -11.223598      93           
   4503000   1258087.2      682.8306       1257404.4      0.24549523     221.81849      320.37384      301.10002      303.57101      295.01521      169464.86      21.645506      101          
   4504000   1258077.1      674.91338      1257402.1      0.24549523     219.24657      279.38308      300.46808      295.12892      295.99628      169429.16     -17.780726      83           
   4505000   1258088.5      684.30537      1257404.1      0.24549523     222.29757      288.25908      302.26199      303.70963      296.7061       169466.08      31.870093      84           
   4506000   1258089.7      688.01635      1257401.7      0.24549523     223.50309      320.21534      304.12589      304.97051      296.96017      169435.31     -26.569702      77           
   4507000   1258083.7      679.17326      1257404.5      0.24549523     220.6304       315.14438      301.35005      298.01925      298.20289      169473.09      27.451976      70           
   4508000   1258085.2      678.3146       1257406.9      0.24549523     220.35147      333.85743      299.16226      299.46747      300.29146      169459.18     -9.9162014      74           
   4509000   1258072.2      679.14822      1257393        0.24549523     220.62227      317.93235      299.24587      300.79367      299.40384      169424.75      4.1067164      72           
   4510000   1258078.4      675.92128      1257402.5      0.24549523     219.57399      299.43105      298.46283      298.39337      298.72822      169472.92      20.287218      78           
   4511000   1258079.1      675.23032      1257403.9      0.24549523     219.34953      325.19861      296.71722      300.54043      296.03346      169429.42     -26.439948      86           
   4512000   1258084.3      678.29403      1257406        0.24549523     220.34478      308.99874      299.50414      300.26414      296.35055      169477.72      46.165806      79           
   4513000   1258081.7      676.13943      1257405.6      0.24549523     219.64486      299.98595      296.51169      301.95895      297.33505      169419.19     -48.489899      78           
   4514000   1258073.2      675.25481      1257397.9      0.24549523     219.35749      307.63789      299.70783      295.74924      298.15204      169500.84      51.858642      82           
   4515000   1258075.5      676.78133      1257398.7      0.24549523     219.85338      288.67198      301.67181      295.11389      297.39926      169418.06     -38.822195      79           
   4516000   1258081.3      678.25971      1257403        0.24549523     220.33363      296.75303      299.98248      299.24349      297.88334      169463.89      36.314918      82           
   4517000   1258082.7      679.51044      1257403.2      0.24549523     220.73994      257.75699      299.78616      300.96963      300.23788      169416.24     -11.230326      86           
   4518000   1258075        678.77317      1257396.2      0.24549523     220.50043      253.94787      299.34218      300.45254      301.31777      169451.45      5.5377648      87           
   4519000   1258080.5      677.7791       1257402.7      0.24549523     220.1775       289.35842      297.91396      301.29176      299.97239      169449.55      16.679411      88           
   4520000   1258087        683.53024      1257403.5      0.24549523     222.04577      315.17202      302.83929      300.69385      299.67323      169459.59     -31.649133      89           
   4521000   1258077.8      683.67354      1257394.1      0.24549523     222.09232      271.78794      303.43386      300.23058      301.04527      169481.12      45.874419      92           
   4522000   1258084.9      680.42517      1257404.4      0.24549523     221.03709      258.52389      299.70574      302.12674      300.50315      169430.57     -41.331975      84           
   4523000   1258073.4      679.70075      1257393.7      0.24549523     220.80176      300.10609      298.6549       302.01765      301.43994      169486.85      49.168864      86           
   4524000   1258082.8      675.7622       1257407        0.24549523     219.52231      281.66092      296.82113      299.78513      302.91188      169400.66     -30.489712      85           
   4525000   1258081.1      683.19228      1257397.9      0.24549523     221.93599      286.84475      301.11815      302.28989      303.27394      169486.6       30.398695      87           
   4526000   1258084        680.85681      1257403.2      0.24549523     221.1773       322.03636      299.9683       301.02913      301.96283      169428.36     -12.400519      94           
   4527000   1258081.1      682.53582      1257398.6      0.24549523     221.72273      279.2585       302.02621      300.04167      303.86701      169454.74      7.1851289      89           
   4528000   1258082.1      682.4555       1257399.7      0.24549523     221.69664      277.84429      301.21922      301.78181      301.61682      169468.37      15.923098      87           
   4529000   1258084.3      679.29455      1257405        0.24549523     220.6698       305.89902      295.58689      306.17388      300.95896      169437.52     -10.416456      98           
   4530000   1258083.9      682.99869      1257400.9      0.24549523     221.8731       287.0346       300.10489      304.20834      300.96743      169427.52      27.338742      92           
   4531000   1258079.2      678.98566      1257400.2      0.24549523     220.56946      298.78113      301.7053       296.71916      300.87194      169423.36     -27.60587       85           
   4532000   1258090.6      683.60093      1257407        0.24549523     222.06874      312.99527      300.06753      304.98537      299.64722      169506.14      41.0051        90           
   4533000   1258084.3      682.14245      1257402.2      0.24549523     221.59495      294.52193      300.71222      302.18781      300.73387      169402.98     -38.187843      84           
   4534000   1258084        682.02739      1257402        0.24549523     221.55757      288.33304      300.96036      301.38223      302.17626      169483.97      37.106151      90           
   4535000   1258074.7      678.08529      1257396.7      0.24549523     220.27697      313.6526       299.2355       298.45957      303.35778      169456.11     -29.373199      88           
   4536000   1258080.7      679.69185      1257401        0.24549523     220.79887      287.76692      299.02732      300.71181      304.80433      169465.57      35.449998      82           
   4537000   1258078.4      678.60121      1257399.8      0.24549523     220.44457      270.59076      300.04211      297.73554      306.10949      169413.92     -15.507442      87           
   4538000   1258075.8      675.79855      1257400        0.24549523     219.53412      275.68765      297.24732      298.51991      305.83722      169484.61      14.402502      92           
   4539000   1258084.7      680.59982      1257404.1      0.24549523     221.09382      232.3241       297.72381      304.731        304.01043      169430.84      6.3720208      84           
   4540000   1258081.1      678.52439      1257402.6      0.24549523     220.41961      268.28527      300.74633      297.80622      301.50389      169452.57     -2.0559247      80           
   4541000   1258086        685.62823      1257400.3      0.24549523     222.72731      291.75104      302.06623      304.46081      300.83146      169447.3       19.35399       82           
   4542000   1258079.5      677.46621      1257402.1      0.24549523     220.07586      278.86753      300.67339      297.00086      299.61803      169461.74     -20.672134      82           
   4543000   1258083.5      681.9084       1257401.6      0.24549523     221.51892      314.33875      300.63447      301.93049      300.50777      169464.15      32.440476      86           
   4544000   1258082.1      681.0976       1257401        0.24549523     221.25552      350.98253      300.05785      301.17058      300.83676      169415.83     -30.498023      77           
   4545000   1258078.9      680.84551      1257398        0.24549523     221.17363      344.28636      299.49631      301.16172      303.18548      169497.92      39.42582       76           
   4546000   1258081.8      682.35825      1257399.4      0.24549523     221.66505      320.29327      299.96637      302.14098      304.89682      169403.65     -28.938091      76           
   4547000   1258083.1      681.2134       1257401.9      0.24549523     221.29314      282.57219      301.01493      299.48081      305.41493      169471.51      33.131915      80           
   4548000   1258081.2      678.94678      1257402.3      0.24549523     220.55683      297.2744       297.32608      302.34073      304.37603      169441        -19.419948      84           
   4549000   1258074.8      674.34527      1257400.5      0.24549523     219.06202      312.25532      297.73854      296.5588       301.72245      169478.09      18.623719      93           
   4550000   1258086.8      678.81662      1257408        0.24549523     220.51454      289.22665      300.07815      299.30235      300.18689      169441.8      -5.1540879      95           
   4551000   1258075.2      672.13195      1257403.1      0.24549523     218.34302      286.18343      299.10104      293.12117      298.15033      169445.93      1.8595746      94           
   4552000   1258086        682.793        1257403.2      0.24549523     221.80628      299.55784      299.65881      305.06858      298.62739      169489.9       17.38066       90           
   4553000   1258077        676.08922      1257400.9      0.24549523     219.62855      342.15119      298.22502      298.19493      299.00677      169405.71     -12.116157      99           
   4554000   1258085.9      678.17295      1257407.7      0.24549523     220.30545      343.43909      300.58593      296.96951      299.78031      169474.76      25.390344      97           
   4555000   1258085.5      678.26349      1257407.3      0.24549523     220.33486      354.42616      300.00521      297.444        301.24569      169427.23     -22.067939      97           
   4556000   1258087.7      681.89195      1257405.8      0.24549523     221.51357      348.56143      298.8073       303.7504       301.34652      169465.71      30.50202       97           
   4557000   1258082.1      677.3731       1257404.7      0.24549523     220.04562      310.9578       297.99725      299.99594      301.47526      169440.66     -21.146003      81           
   4558000   1258084.7      676.94437      1257407.7      0.24549523     219.90634      304.03946      300.23916      296.50688      300.27417      169455.38      22.449718      80           
   4559000   1258076.8      674.96216      1257401.9      0.24549523     219.26242      328.97743      297.31919      298.378        299.05872      169486.38     -2.7467296      92           
   4560000   1258082.1      679.0632       1257403        0.24549523     220.59465      291.72457      300.79052      298.99859      298.21748      169429.59      0.97488759     89           
   4561000   1258081.5      680.77123      1257400.8      0.24549523     221.1495       284.20715      301.85785      299.76461      297.5545       169451.87      18.642239      97           
   4562000   1258083.5      678.65266      1257404.8      0.24549523     220.46128      290.11933      298.70674      301.59428      298.34498      169446.73     -14.236076      100          
   4563000   1258079.1      673.06477      1257406        0.24549523     218.64605      310.5044       296.70952      297.51099      297.96609      169458.92      25.162534      103          
   4564000   1258081.2      679.50838      1257401.7      0.24549523     220.73926      289.68469      300.73362      299.78795      297.78669      169463.55     -24.639869      99           
   4565000   1258081.7      678.69568      1257403        0.24549523     220.47526      310.2297       301.58249      297.26176      297.48388      169469.72      39.18197       104          
   4566000   1258090.2      687.69749      1257402.5      0.24549523     223.39951      297.64099      304.19618      304.74279      296.89096      169433.71     -28.188668      104          
   4567000   1258083.7      681.04416      1257402.7      0.24549523     221.23817      281.32516      302.46478      299.51142      296.65937      169490.42      27.610735      103          
   4568000   1258083.3      686.96578      1257396.3      0.24549523     223.16181      300.95887      306.67852      300.6738       294.64058      169430.88     -11.12357       100          
   4569000   1258085.8      690.1158       1257395.7      0.24549523     224.1851       280.37562      304.29025      308.20615      295.61331      169455.31      9.5623818      100          
   4570000   1258076.2      676.48834      1257399.7      0.24549523     219.7582       297.13792      298.09225      300.60095      295.26163      169419.09      4.5058456      98           
   4571000   1258081.8      679.43359      1257402.4      0.24549523     220.71497      281.59266      300.62365      300.24813      296.81266      169469.01     -2.7343774      100          
   4572000   1258079.7      683.05771      1257396.6      0.24549523     221.89227      295.38199      301.77701      302.62564      297.13049      169460.69      19.119458      90           
   4573000   1258088.2      684.72363      1257403.4      0.24549523     222.43345      287.96993      304.24983      300.83677      298.02195      169434.06     -9.760101       91           
   4574000   1258085.9      682.84419      1257403        0.24549523     221.82291      290.38545      303.69606      300.0541       295.38291      169485.99      11.265143      91           
   4575000   1258070        674.05241      1257395.9      0.24549523     218.96689      295.69145      300.87241      293.46935      295.17537      169450.55     -5.1786549      89           
   4576000   1258082.8      679.65116      1257403.2      0.24549523     220.78565      288.35983      299.92627      302.10346      294.57661      169465.01      8.2687095      97           
   4577000   1258075.3      674.2876       1257401        0.24549523     219.04329      269.73131      299.75624      295.86762      294.94813      169432.64     -2.9344956      96           
   4578000   1258078.6      677.03678      1257401.6      0.24549523     219.93636      266.3143       302.80661      294.53838      295.21783      169458.87      5.9222624      94           
   4579000   1258079.4      674.72173      1257404.7      0.24549523     219.18431      294.13564      297.77787      298.96203      295.06803      169435.96      5.3938657      102          
   4580000   1258084        684.0858       1257400        0.24549523     222.22625      282.96798      303.30052      302.06262      296.60599      169454.25      5.0136508      105          
   4581000   1258083.5      680.1813       1257403.3      0.24549523     220.95787      290.86513      301.8265       299.36853      295.91322      169461.59     -2.7141775      93           
   4582000   1258077.2      676.32437      1257400.9      0.24549523     219.70494      307.02828      300.22204      297.08075      295.1413       169450.28      12.758124      95           
   4583000   1258071        674.84486      1257396.2      0.24549523     219.22431      307.7095       299.89349      295.78142      295.04342      169435.47     -5.4294219      90           
   4584000   1258076.3      675.64626      1257400.7      0.24549523     219.48465      297.57849      301.5207       294.90898      293.36887      169461.49      11.915236      90           
   4585000   1258081.2      677.88288      1257403.3      0.24549523     220.21122      300.3362       301.35763      298.32361      291.67708      169465.29     -6.3299935      85           
   4586000   1258082.4      677.19924      1257405.2      0.24549523     219.98914      299.69168      298.11248      302.36371      291.65899      169458.07      9.4308674      96           
   4587000   1258080.1      679.305        1257400.8      0.24549523     220.6732       283.21202      299.5079       302.9166       292.35569      169434.5      -2.3965173      95           
   4588000   1258080.7      681.76059      1257398.9      0.24549523     221.4709       264.42374      304.50768      298.39889      293.57951      169447.75      8.0527022      101          
   4589000   1258076.7      676.51417      1257400.2      0.24549523     219.76659      239.64456      298.5991       300.85363      295.03599      169476.98      5.6149343      101          
   4590000   1258077.7      680.15995      1257397.5      0.24549523     220.95093      273.4146       300.09702      302.31242      295.88194      169443.46      0.89356991     101          
   4591000   1258083.8      682.20605      1257401.6      0.24549523     221.61561      280.93778      302.20914      301.47907      296.09439      169464.21      14.272044      102          
   4592000   1258078.7      677.83964      1257400.9      0.24549523     220.19717      283.12455      298.92864      300.808        296.65347      169450.3      -7.5728237      100          
   4593000   1258083.3      680.37737      1257402.9      0.24549523     221.02156      305.26674      301.98103      298.97493      296.82027      169478.54      14.883537      113          
   4594000   1258079.3      674.89707      1257404.4      0.24549523     219.24127      287.54579      299.89732      296.22118      294.77799      169404.82     -11.97535       112          
   4595000   1258082.8      677.43637      1257405.4      0.24549523     220.06617      290.60153      300.16124      299.27464      293.33711      169459.48      22.219431      118          
   4596000   1258081        672.52253      1257408.5      0.24549523     218.4699       257.36306      295.26338      301.36902      292.60923      169446.58     -18.986738      111          
   4597000   1258075.3      675.26017      1257400        0.24549523     219.35923      268.44372      299.47009      298.12351      292.95727      169441.31      26.119843      111          
   4598000   1258081.7      684.43736      1257397.2      0.24549523     222.34045      280.55284      304.76091      301.11263      293.4573       169451.44     -18.953499      115          
   4599000   1258078.8      679.55614      1257399.3      0.24549523     220.75478      273.8301       301.66768      299.70509      294.0867       169438.46      24.527034      110          
   4600000   1258075.7      674.00076      1257401.7      0.24549523     218.95011      248.28619      296.19398      301.38423      294.51911      169450.02     -4.7537151      103          
   4601000   1258077.1      682.04204      1257395.1      0.24549523     221.56233      239.42083      302.00089      302.36277      295.71461      169439.21      0.07339345     106          
   4602000   1258075.7      678.50055      1257397.2      0.24549523     220.41187      254.68443      299.94162      301.11359      294.87767      169451.95      18.159012      112          
   4603000   1258082.3      678.32582      1257404        0.24549523     220.35511      263.88395      297.43151      304.87192      293.66303      169453.23     -23.883305      103          
   4604000   1258079.5      678.05611      1257401.4      0.24549523     220.26749      273.90986      301.61249      298.36045      292.46851      169455.65      42.096183      107          
   4605000   1258072.5      674.20229      1257398.3      0.24549523     219.01557      245.76162      300.19597      296.52454      291.27241      169414.98     -34.356156      100          
   4606000   1258068.7      671.16163      1257397.6      0.24549523     218.02781      283.08633      294.13533      301.2536       291.53318      169461.21      42.931831      109          
   4607000   1258075.4      681.69439      1257393.7      0.24549523     221.44939      254.59908      301.1807       303.76795      292.69095      169442.99     -33.893754      110          
   4608000   1258076        676.0473       1257399.9      0.24549523     219.61493      271.59614      300.01195      298.36588      292.23728      169431.27      29.337272      98           
   4609000   1258084        680.3927       1257403.6      0.24549523     221.02654      293.83104      303.28042      298.23849      293.0428       169473.53     -16.029758      93           
   4610000   1258092.4      686.86781      1257405.5      0.24549523     223.12999      345.47188      302.91266      305.69584      294.12152      169481.38      18.489169      95           
   4611000   1258076.2      675.71527      1257400.4      0.24549523     219.50707      327.05025      298.10743      299.13629      295.2716       169467.57      1.2949497      96           
   4612000   1258080.9      683.38948      1257397.5      0.24549523     222.00004      309.1395       299.72371      306.62768      294.60359      169445.77     -6.4977753      96           
   4613000   1258082.6      677.1955       1257405.4      0.24549523     219.98792      284.18115      301.89186      296.28492      294.34162      169475.43      23.901016      102          
   4614000   1258086.9      684.05507      1257402.9      0.24549523     222.21626      292.01326      303.45597      302.291        293.60675      169438.57     -28.680041      108          
   4615000   1258084.9      684.76074      1257400.2      0.24549523     222.4455       316.79083      301.65869      305.92821      291.69443      169444.07      40.783346      121          
   4616000   1258078.9      674.59796      1257404.3      0.24549523     219.14411      264.06842      298.90195      298.83876      290.21983      169484.82     -31.813219      100          
   4617000   1258085        679.49648      1257405.5      0.24549523     220.7354       282.98964      301.8802       300.71853      288.07067      169445.89      34.723425      86           
   4618000   1258079.9      671.72092      1257408.2      0.24549523     218.2095       325.79417      296.65369      298.26802      288.6701       169456.03     -21.700759      88           
   4619000   1258071.1      671.74931      1257399.4      0.24549523     218.21872      317.04549      295.88519      299.18707      290.29391      169435.09      15.833502      83           
   4620000   1258083.1      680.90444      1257402.2      0.24549523     221.19278      303.77502      299.97964      303.60984      293.40259      169458.09      1.6501098      82           
   4621000   1258079        683.54547      1257395.5      0.24549523     222.05072      321.51967      303.21245      301.60247      293.73681      169433.9      -6.8977139      90           
   4622000   1258077.7      677.39801      1257400.3      0.24549523     220.05371      316.41099      300.75273      297.94578      293.28175      169446.62      23.296964      98           
   4623000   1258082.8      678.95184      1257403.8      0.24549523     220.55847      297.94624      300.56939      300.75787      291.97576      169451.11     -22.504083      104          
   4624000   1258078.2      675.58425      1257402.6      0.24549523     219.46451      296.79419      302.54766      293.84395      291.18301      169411.52      30.732251      103          
   4625000   1258069        674.23577      1257394.8      0.24549523     219.02645      266.98671      299.18506      297.91476      290.53338      169465.12     -24.56833       100          
   4626000   1258077.7      680.44609      1257397.3      0.24549523     221.04388      313.6568       302.59514      299.86784      289.82798      169462.63      23.036242      106          
   4627000   1258080        679.47911      1257400.5      0.24549523     220.72976      267.34438      304.27041      296.49859      291.00978      169488.96     -7.9474145      86           
   4628000   1258076.5      679.21566      1257397.3      0.24549523     220.64418      249.30595      299.82973      302.48419      293.31186      169435.61      13.162778      82           
   4629000   1258084.2      676.57466      1257407.6      0.24549523     219.78624      293.6766       297.67556      301.58659      294.57663      169446.2      -2.1061732      95           
   4630000   1258081.8      682.0867       1257399.7      0.24549523     221.57683      279.65683      302.5155       300.94483      295.58048      169451.12      5.588048       87           
   4631000   1258076.7      676.65125      1257400        0.24549523     219.81112      274.33526      300.13019      298.04836      295.33322      169424.31      2.6421117      92           
   4632000   1258081.3      677.38335      1257403.9      0.24549523     220.04895      265.16498      300.27711      299.35642      293.36893      169457.94      4.2229615      86           
   4633000   1258077.6      676.11627      1257401.5      0.24549523     219.63733      297.4745       298.26426      301.05         290.88846      169481.32      7.8265675      87           
   4634000   1258074.5      672.38665      1257402.2      0.24549523     218.42576      297.72877      298.3513       296.62116      289.79885      169444.02      1.4407859      86           
   4635000   1258073.1      669.60662      1257403.5      0.24549523     217.52266      289.20514      297.3401       294.85126      289.73756      169416.08      11.445221      85           
   4636000   1258076.7      674.09093      1257402.6      0.24549523     218.9794       293.27604      296.46585      301.48762      290.4309       169465.71     -5.5037207      84           
   4637000   1258082.1      680.49991      1257401.6      0.24549523     221.06136      305.05737      304.81174      296.21595      291.87354      169446.98      14.792074      92           
   4638000   1258080        677.21053      1257402.8      0.24549523     219.9928       316.08835      300.54128      298.52049      291.43453      169425.64     -8.9436135      100          
   4639000   1258081        681.25842      1257399.8      0.24549523     221.30777      276.53964      300.42059      304.50996      291.00371      169473.52      19.687745      102          
   4640000   1258080        683.51603      1257396.4      0.24549523     222.04116      317.87507      302.84304      303.23137      289.62841      169439.29     -16.881025      107          
   4641000   1258075.2      677.55855      1257397.6      0.24549523     220.10586      300.00666      299.24313      301.90202      288.38155      169440.89      14.672656      110          
   4642000   1258080.3      674.65338      1257405.7      0.24549523     219.16211      321.51333      299.58476      297.56102      287.98078      169428.04     -7.2435129      116          
   4643000   1258076        676.43774      1257399.5      0.24549523     219.74176      277.19867      300.03615      299.60574      288.94368      169507.3       8.933787       102          
   4644000   1258081.7      676.03887      1257405.7      0.24549523     219.61219      280.69007      299.89516      299.02037      289.73004      169439.72      10.144878      102          
   4645000   1258084.7      682.03867      1257402.7      0.24549523     221.56123      315.16504      300.3658       304.91615      290.82908      169439.19     -3.4359934      95           
   4646000   1258086.2      679.29054      1257406.9      0.24549523     220.6685       311.86114      299.20867      302.91804      292.3195       169468.75      16.500149      99           
   4647000   1258081.1      673.11706      1257408        0.24549523     218.66304      302.40998      296.99074      298.68887      292.81546      169441.24     -8.0055448      92           
   4648000   1258077.5      677.98177      1257399.5      0.24549523     220.24334      326.05106      300.41938      299.82752      290.37416      169445.38      11.889277      91           
   4649000   1258086.8      677.56612      1257409.2      0.24549523     220.10832      308.02097      297.97983      303.74252      288.47993      169447.62      2.9319632      81           
   4650000   1258082.6      673.49384      1257409.1      0.24549523     218.78543      316.8          300.7805       295.13549      286.0454       169488.95     -1.6924006      76           
   4651000   1258082.5      674.00335      1257408.5      0.24549523     218.95095      328.8154       302.92494      292.32778      286.29684      169404.72      6.8865157      74           
   4652000   1258086.7      682.25563      1257404.5      0.24549523     221.63171      313.54155      304.12631      300.76265      286.36822      169454.96     -0.53547634     86           
   4653000   1258090.7      683.37203      1257407.4      0.24549523     221.99438      279.72457      304.96401      300.80674      288.3511       169460.39      11.049076      80           
   4654000   1258082.7      682.21705      1257400.5      0.24549523     221.61918      308.45169      300.38672      305.03242      291.57693      169452.38     -5.9653243      85           
   4655000   1258088.7      675.61494      1257413.1      0.24549523     219.47448      303.72729      295.67423      303.68723      293.0474       169418.64      11.059565      80           
   4656000   1258077.4      681.86918      1257395.5      0.24549523     221.50618      332.65432      301.20619      302.37096      293.97422      169487.23      1.0820764      91           
   4657000   1258090.2      685.17775      1257405        0.24549523     222.58097      319.3442       302.04051      305.29654      294.32877      169474.16      5.3450909      87           
   4658000   1258079        676.82939      1257402.2      0.24549523     219.86899      321.4554       301.92133      295.65864      292.57296      169411.17      6.378873       85           
   4659000   1258076.8      676.51413      1257400.3      0.24549523     219.76658      334.11015      301.98635      295.93047      288.95512      169459.52     -2.6395718      91           
   4660000   1258086        678.79529      1257407.2      0.24549523     220.50762      282.18979      301.42347      300.48726      288.31758      169418.56      8.3423008      83           
   4661000   1258082.3      679.55493      1257402.7      0.24549523     220.75439      316.48987      302.56452      298.92046      289.72921      169487.98     -3.2647139      81           
   4662000   1258075.5      674.90695      1257400.6      0.24549523     219.24448      318.66993      299.90646      296.66124      291.61648      169419.56      9.5531574      75           
   4663000   1258082.8      681.85056      1257401        0.24549523     221.50013      317.99676      300.32265      303.66591      294.91216      169475.98     -7.649888       72           
   4664000   1258086.8      676.8184       1257410        0.24549523     219.86542      301.89549      299.116        298.85654      297.33767      169439.06      14.270538      79           
   4665000   1258077.4      672.36408      1257405        0.24549523     218.41843      354.34596      298.98381      293.01066      296.83458      169423.86     -9.4038135      85           
   4666000   1258077.7      675.87832      1257401.8      0.24549523     219.56003      314.93866      296.47301      301.8834       295.86411      169466.2       11.270693      77           
   4667000   1258088        677.37888      1257410.6      0.24549523     220.0475       350.76794      298.47038      301.18492      292.69309      169462.3      -6.3722374      76           
   4668000   1258074.5      673.21488      1257401.2      0.24549523     218.69481      308.95302      296.31478      300.16232      291.39572      169463.55      8.4883975      73           
   4669000   1258073.3      673.34429      1257400        0.24549523     218.73685      325.46242      296.93904      299.71856      289.29635      169392.86      3.044529       80           
   4670000   1258068.1      673.8499       1257394.3      0.24549523     218.9011       288.59874      296.72946      300.73106      290.73364      169485.84      1.424958       74           
   4671000   1258080.2      678.22158      1257402        0.24549523     220.32125      278.58188      298.89064      302.59057      292.18488      169452.57      7.8537947      78           
   4672000   1258081.3      676.84369      1257404.5      0.24549523     219.87364      298.33129      301.20741      296.41365      294.82714      169445.54     -3.1018709      77           
   4673000   1258075.9      675.05797      1257400.9      0.24549523     219.29354      307.91356      300.90009      294.2519       296.13663      169439.08      11.264295      81           
   4674000   1258077.1      676.20474      1257400.9      0.24549523     219.66607      304.5381       298.99277      298.3903       296.78818      169469.21     -6.4718626      81           
   4675000   1258084.9      682.85616      1257402.1      0.24549523     221.8268       295.82254      304.27873      298.83819      296.29408      169456.32      10.439977      79           
   4676000   1258077.5      678.70167      1257398.8      0.24549523     220.47721      230.59863      298.83819      302.76483      295.90694      169422.76     -4.1485104      70           
   4677000   1258084.3      682.44066      1257401.8      0.24549523     221.69182      283.41598      300.79446      304.6072       293.07745      169473.65      16.412819      72           
   4678000   1258080.6      677.79927      1257402.8      0.24549523     220.18406      241.87297      300.68151      299.42855      293.12168      169429.39     -7.2735862      60           
   4679000   1258088        681.91555      1257406.1      0.24549523     221.52124      276.31244      300.97912      303.81995      292.84974      169454.08      11.809552      70           
   4680000   1258081        677.77128      1257403.2      0.24549523     220.17497      258.16982      299.9749       299.88272      294.78793      169455.01     -0.2840174      70           
   4681000   1258079.8      680.18872      1257399.7      0.24549523     220.96027      294.72405      301.75122      299.3452       296.52346      169463.58      11.300352      81           
   4682000   1258074        678.34037      1257395.7      0.24549523     220.35983      308.20102      300.50694      298.74157      296.54171      169424.78     -5.354802       80           
   4683000   1258083.7      680.6096       1257403.1      0.24549523     221.097        282.3904       301.57         300.17997      296.87501      169464.13     -1.5254979      78           
   4684000   1258079        675.6707       1257403.3      0.24549523     219.49259      284.3398       299.07185      298.47349      294.53641      169476.89      4.6252406      74           
   4685000   1258070.9      668.21048      1257402.7      0.24549523     217.06913      318.4699       295.22353      295.05478      292.96343      169418.01     -2.5388692      82           
   4686000   1258082.2      678.36566      1257403.8      0.24549523     220.36805      265.73172      298.62489      302.6885       294.35953      169484.57      7.6373346      82           
   4687000   1258084.3      678.65395      1257405.6      0.24549523     220.4617       274.84156      300.86296      299.4984       294.87401      169427.78     -2.1010088      84           
   4688000   1258077.2      679.31847      1257397.9      0.24549523     220.67757      295.1139       298.40283      303.34314      296.39218      169467.63      15.312627      87           
   4689000   1258082.4      681.49047      1257400.9      0.24549523     221.38315      311.52375      303.63605      297.80482      296.72775      169407.17     -11.284846      97           
   4690000   1258084.5      683.99952      1257400.5      0.24549523     222.19822      288.39156      300.53279      305.44522      298.4131       169499.56      23.183955      97           
   4691000   1258081.7      680.23758      1257401.4      0.24549523     220.97615      341.38817      301.76931      298.70609      296.22735      169435.75     -11.218794      103          
   4692000   1258080.9      674.73662      1257406.1      0.24549523     219.18915      330.67717      294.61069      303.1373       295.277        169444.45      8.6087058      106          
   4693000   1258071.9      673.30185      1257398.6      0.24549523     218.72306      276.62159      296.05057      300.18201      294.86446      169476.28      1.3826056      103          
   4694000   1258072.2      671.6806       1257400.5      0.24549523     218.1964       320.58216      294.3608       300.23116      294.10088      169433.73     -2.4105497      102          
   4695000   1258073.4      675.88498      1257397.6      0.24549523     219.5622       285.41379      296.20783      302.32405      297.37153      169452.57      13.206894      103          
   4696000   1258077.4      677.3603       1257400        0.24549523     220.04146      278.13331      293.36838      307.94327      299.70626      169424.54     -8.8342315      100          
   4697000   1258079        679.5453       1257399.5      0.24549523     220.75126      287.18792      297.38572      303.97924      301.35532      169469.46      13.848944      91           
   4698000   1258079.7      682.48392      1257397.2      0.24549523     221.70587      260.2343       301.63094      301.31996      302.07275      169415.44     -5.8931116      88           
   4699000   1258083.8      680.95216      1257402.9      0.24549523     221.20828      266.77947      298.37861      304.27695      302.13858      169471.72      15.243818      87           
   4700000   1258091.2      681.70564      1257409.5      0.24549523     221.45305      284.16206      302.25257      299.72825      299.81619      169459.71     -13.837798      89           
   4701000   1258083.5      679.86118      1257403.7      0.24549523     220.85387      314.92293      303.06752      296.23063      298.12619      169416.87      17.553247      98           
   4702000   1258090.9      682.75872      1257408.1      0.24549523     221.79514      342.98611      302.49141      300.36923      297.5112       169448.22     -10.460665      101          
   4703000   1258081.6      679.08597      1257402.5      0.24549523     220.60205      282.27308      300.40421      299.26149      300.03375      169447.84      12.157044      99           
   4704000   1258072        674.95426      1257397.1      0.24549523     219.25985      284.15157      296.05196      300.31874      301.54774      169443.3       1.3915863      99           
   4705000   1258080.3      679.68079      1257400.6      0.24549523     220.79527      291.61275      300.11178      299.52996      303.01503      169434.64     -7.1148916      105          
   4706000   1258079.1      684.59481      1257394.5      0.24549523     222.3916       239.36436      302.07897      302.64695      306.05602      169451.19      15.030875      106          
   4707000   1258069.3      675.43224      1257393.9      0.24549523     219.41513      269.16776      295.99163      300.13166      305.99132      169464.46     -13.26041       109          
   4708000   1258076.2      678.83225      1257397.4      0.24549523     220.51962      292.12831      297.77037      302.00563      302.78001      169445.99      21.339222      109          
   4709000   1258075.8      673.49021      1257402.3      0.24549523     218.78425      271.85126      295.95429      299.17744      301.12972      169460.72     -15.592375      121          
   4710000   1258084.8      678.57677      1257406.2      0.24549523     220.43663      291.89119      299.10733      300.64884      299.27406      169458.78      21.193076      119          
   4711000   1258081        671.72075      1257409.3      0.24549523     218.20944      286.58557      296.12471      296.70687      299.64526      169420.64     -12.459244      118          
   4712000   1258084.4      678.07646      1257406.3      0.24549523     220.2741       228.86965      298.73136      301.05339      301.91815      169476.09      19.317074      113          
   4713000   1258086        680.77706      1257405.3      0.24549523     221.1514       291.83694      297.88377      304.07817      303.70895      169434.11     -13.654239      106          
   4714000   1258081.5      685.16462      1257396.3      0.24549523     222.5767       265.4563       303.43537      301.00323      305.62973      169472.62      9.3602943      108          
   4715000   1258079.4      683.34227      1257396.1      0.24549523     221.98471      316.40683      301.26001      301.27199      306.09343      169423.3       3.3230838      118          
   4716000   1258084        682.22253      1257401.7      0.24549523     221.62096      306.69982      298.7971       304.28751      303.3795       169452.6      -7.1908605      105          
   4717000   1258084.5      682.7106       1257401.8      0.24549523     221.77951      310.54235      301.10608      302.31425      299.73337      169472.32      26.747007      105          
   4718000   1258093.9      688.97016      1257405        0.24549523     223.81294      336.7856       304.66886      305.21921      296.02059      169453.14     -26.844668      102          
   4719000   1258087.8      683.69174      1257404.1      0.24549523     222.09824      295.42656      300.45422      305.30717      297.65466      169480.38      31.151299      94           
   4720000   1258082.4      680.21464      1257402.2      0.24549523     220.96869      289.04697      297.77115      305.11137      297.66964      169442.03     -26.537926      89           
   4721000   1258083.6      683.59421      1257400        0.24549523     222.06655      304.71365      304.5563       298.16513      300.2824       169485.88      35.697308      101          
   4722000   1258080.4      679.35663      1257401.1      0.24549523     220.68997      310.01554      298.51863      301.2892       302.81415      169404.7      -28.315067      94           
   4723000   1258091.7      684.59284      1257407.1      0.24549523     222.39096      314.33666      298.36429      307.04077      305.901        169479.02      27.456149      93           
   4724000   1258077.2      674.18559      1257403        0.24549523     219.01015      281.1173       298.49437      294.33791      306.66959      169477.77     -13.812075      84           
   4725000   1258084.8      683.93659      1257400.8      0.24549523     222.17778      288.64532      299.42194      305.7153       303.52352      169453.4       15.260717      82           
   4726000   1258095.6      687.5994       1257408        0.24549523     223.36764      296.48614      301.25486      308.25436      299.93544      169451.96      5.2881003      84           
   4727000   1258085.9      674.61748      1257411.3      0.24549523     219.15045      327.97242      299.22066      295.74319      297.33909      169422.97     -9.6896272      79           
   4728000   1258089.2      679.17073      1257410        0.24549523     220.62958      343.11746      299.34805      301.01594      296.97453      169473.99      28.343629      75           
   4729000   1258087        683.80184      1257403.2      0.24549523     222.134        303.69078      305.24298      297.46064      300.12351      169413.31     -27.424939      75           
   4730000   1258085.2      682.52319      1257402.6      0.24549523     221.71863      318.15368      301.18425      301.55566      301.0883       169469.68      40.893588      78           
   4731000   1258075.2      674.61143      1257400.6      0.24549523     219.14848      338.1241       299.76595      293.00993      303.63345      169443.65     -35.13363       82           
   4732000   1258082.2      678.40823      1257403.8      0.24549523     220.38188      341.03295      299.20359      298.31074      304.2279       169483.11      38.125179      85           
   4733000   1258086.2      677.69078      1257408.5      0.24549523     220.14881      281.98441      298.33216      299.39193      304.57587      169403.45     -22.436585      79           
   4734000   1258082.7      681.31064      1257401.4      0.24549523     221.32473      310.47954      300.2417       301.23418      302.37328      169481.5       14.695527      76           
   4735000   1258075.8      672.77125      1257403        0.24549523     218.5507       256.11655      295.29394      299.34425      300.59243      169438.57      9.2721549      82           
   4736000   1258072.9      671.95939      1257401        0.24549523     218.28697      280.32094      296.67104      296.13876      299.86578      169451.13     -18.886139      76           
   4737000   1258076.5      678.65195      1257397.8      0.24549523     220.46105      236.36448      298.75053      301.29034      301.36246      169456.41      38.221191      69           
   4738000   1258087.8      684.46264      1257403.3      0.24549523     222.34866      349.40001      302.45947      301.45318      302.58301      169437.55     -43.823183      81           
   4739000   1258082.4      681.84186      1257400.6      0.24549523     221.4973       312.45893      298.61412      303.47942      305.42397      169451.89      60.880209      87           
   4740000   1258077.4      674.18805      1257403.2      0.24549523     219.01095      299.18663      297.42452      295.28042      308.06908      169400        -54.517645      82           
   4741000   1258068.5      677.98666      1257390.5      0.24549523     220.24493      307.00291      297.18619      300.45471      307.31832      169506.58      58.998402      79           
   4742000   1258065.4      665.68758      1257399.7      0.24549523     216.24956      293.96093      290.72112      295.51847      306.10657      169412.9      -38.831798      67           
   4743000   1258083.2      681.26253      1257402        0.24549523     221.3091       281.82894      300.26835      300.45803      306.16099      169458.04      23.845819      76           
   4744000   1258089        682.79678      1257406.2      0.24549523     221.80751      251.30208      300.45271      302.66394      305.5817       169454.57     -0.27059325     85           
   4745000   1258090.7      682.13138      1257408.6      0.24549523     221.59135      290.83319      303.22838      296.99668      306.09609      169419.34     -11.652985      81           
   4746000   1258074.9      674.77511      1257400.2      0.24549523     219.20165      263.20378      296.50714      297.83284      307.94839      169454.59      39.330377      74           
   4747000   1258079.3      677.39569      1257402        0.24549523     220.05296      271.39292      296.73791      299.85624      310.90523      169409.82     -49.529853      75           
   4748000   1258082.8      681.83411      1257400.9      0.24549523     221.49478      297.30423      299.4683       300.95722      310.78813      169515.89      72.202645      85           
   4749000   1258079.3      681.44475      1257397.8      0.24549523     221.3683       270.17593      299.94856      300.42582      310.06613      169388.77     -83.899022      85           
   4750000   1258085        678.62983      1257406.4      0.24549523     220.45387      319.86244      298.16889      298.92029      309.80998      169507.73      93.004874      91           
   4751000   1258087.3      683.49955      1257403.8      0.24549523     222.0358       342.55602      300.81573      301.08695      308.11216      169415        -74.867258      83           
   4752000   1258090        683.81889      1257406.1      0.24549523     222.13954      307.59732      300.98092      301.83884      307.92107      169463.52      65.75042       85           
   4753000   1258093.5      685.38269      1257408.1      0.24549523     222.64754      314.6489       302.68867      300.6002       309.30377      169440.16     -32.902719      79           
   4754000   1258088.7      684.02081      1257404.6      0.24549523     222.20513      306.6794       298.55612      304.73875      311.27147      169461.61      13.757029      80           
   4755000   1258077.8      683.37781      1257394.5      0.24549523     221.99626      267.92588      304.52821      295.2481       311.92085      169472.12      17.602932      73           
   4756000   1258092.1      686.72537      1257405.3      0.24549523     223.08371      263.43625      303.68726      299.99315      314.40623      169435.91     -34.719718      72           
   4757000   1258083.8      681.37666      1257402.5      0.24549523     221.34618      269.73599      299.03586      300.51894      313.75451      169459.6       74.914727      79           
   4758000   1258083.5      682.04524      1257401.5      0.24549523     221.56337      243.94429      301.60751      298.35398      312.15917      169390.48     -90.614932      86           
   4759000   1258073.9      671.39404      1257402.5      0.24549523     218.10331      261.85897      294.24094      296.42933      310.81887      169465.2       105.59149      83           
   4760000   1258078        675.76674      1257402.2      0.24549523     219.52379      275.38696      295.10909      300.5838       309.80909      169417.66     -98.665026      81           
   4761000   1258072.3      674.80755      1257397.5      0.24549523     219.21219      254.16361      295.39385      298.72885      312.27529      169527.92      92.923228      90           
   4762000   1258071.6      673.53896      1257398.1      0.24549523     218.80009      270.95139      296.56671      294.68393      313.85933      169408.55     -61.66549       90           
   4763000   1258075        678.02828      1257397        0.24549523     220.25845      283.98674      298.83716      295.88168      316.49525      169463.21      44.187529      86           
   4764000   1258088.2      684.85707      1257403.4      0.24549523     222.4768       322.73176      301.70013      299.17818      317.4914       169441.63     -3.8770866      92           
   4765000   1258080.7      683.56094      1257397.2      0.24549523     222.05574      339.32167      302.72955      296.03831      316.43028      169455.38     -22.273692      103          
   4766000   1258078.3      682.54756      1257395.7      0.24549523     221.72655      350.72373      301.13969      297.30551      315.4091       169478.3       53.2504        103          
   4767000   1258087.4      687.61612      1257399.8      0.24549523     223.37308      314.79322      303.72025      301.16884      311.76752      169423.63     -61.239599      97           
   4768000   1258083.3      679.3276       1257404        0.24549523     220.68054      335.45752      302.67788      292.58842      310.23339      169490.6       76.210658      103          
   4769000   1258081.9      673.10234      1257408.8      0.24549523     218.65826      319.02492      298.29889      292.71074      306.78285      169393.63     -71.112917      109          
   4770000   1258082.9      681.04909      1257401.8      0.24549523     221.23977      322.66294      301.20574      298.06166      306.93453      169502.69      74.421945      112          
   4771000   1258092.2      685.2186       1257407        0.24549523     222.59424      326.93203      303.21529      299.7306       308.18629      169401.81     -45.677626      102          
   4772000   1258088.9      688.94163      1257400        0.24549523     223.80367      297.19039      300.86388      307.89555      309.70603      169464.27      30.754791      102          
   4773000   1258083.1      683.71701      1257399.4      0.24549523     222.10644      311.30487      301.00285      300.50884      311.79516      169458.5      -0.5670896      116          
   4774000   1258071        678.08148      1257392.9      0.24549523     220.27573      322.0212       296.47507      300.18589      311.83614      169457.84     -14.251646      114          
   4775000   1258075.9      681.61469      1257394.3      0.24549523     221.4235       336.23691      296.49925      305.11835      308.78332      169438.2       39.571757      103          
   4776000   1258069.5      674.84618      1257394.7      0.24549523     219.22474      328.7304       294.70762      299.87242      307.71225      169434.93     -45.385659      101          
   4777000   1258075.3      675.35743      1257399.9      0.24549523     219.39082      320.61928      298.08904      295.75762      307.15179      169482.89      63.241231      101          
   4778000   1258083.2      676.30532      1257406.9      0.24549523     219.69875      312.67744      299.17936      295.20538      307.65694      169415.99     -61.9343        107          
   4779000   1258078.7      676.02102      1257402.6      0.24549523     219.60639      284.26326      297.04192      298.42335      307.97857      169468.8       63.614741      96           
   4780000   1258082.1      680.96585      1257401.1      0.24549523     221.21273      268.57998      299.9927       299.92391      309.42316      169441.83     -51.983686      99           
   4781000   1258074.4      675.7429       1257398.6      0.24549523     219.51604      262.03448      296.77703      297.84557      311.60037      169490.11      42.396839      95           
   4782000   1258081        684.8691       1257396.1      0.24549523     222.4807       279.69287      299.96435      304.07548      311.41176      169407.61     -19.815615      98           
   4783000   1258084.9      684.00847      1257400.9      0.24549523     222.20113      280.09844      301.33819      300.94243      311.3627       169457.93      13.223112      95           
   4784000   1258079.6      677.37148      1257402.2      0.24549523     220.04509      267.59308      300.97961      293.54531      311.38371      169432.38      12.543101      96           
   4785000   1258090.9      685.52316      1257405.4      0.24549523     222.69318      274.62873      301.20512      302.9776       311.81881      169471.91     -26.656277      97           
   4786000   1258087.1      683.23571      1257403.9      0.24549523     221.95009      284.14668      298.84813      303.79187      310.9634       169444.27      54.11064       97           
   4787000   1258083.7      682.73995      1257400.9      0.24549523     221.78905      282.80311      298.65647      303.21952      311.93381      169418.86     -59.960348      94           
   4788000   1258075.9      680.57157      1257395.3      0.24549523     221.08464      275.92081      297.75008      301.88141      312.28392      169509.61      70.924084      90           
   4789000   1258083.9      681.76514      1257402.2      0.24549523     221.47238      305.75783      300.32853      298.90178      312.98018      169392.04     -57.476572      106          
   4790000   1258078.9      681.06266      1257397.9      0.24549523     221.24418      267.58876      299.81458      299.52163      312.53913      169497.59      55.523305      100          
   4791000   1258085.9      683.26069      1257402.6      0.24549523     221.95821      283.30955      300.65595      301.19547      310.60471      169436.27     -27.419023      93           
   4792000   1258081.7      681.15594      1257400.5      0.24549523     221.27448      297.84928      301.49725      297.96603      307.44752      169453.4       18.180468      92           
   4793000   1258074.4      673.71827      1257400.7      0.24549523     218.85834      294.2239       296.59263      296.57023      306.40257      169417.67      12.794403      99           
   4794000   1258087        681.4651       1257405.6      0.24549523     221.37491      281.52287      300.97005      299.87819      305.63112      169438.54     -24.091018      97           
   4795000   1258082.3      675.92465      1257406.4      0.24549523     219.57509      267.59727      296.84047      299.18961      306.82984      169480.87      53.908868      100          
   4796000   1258086.1      680.4487       1257405.7      0.24549523     221.04473      297.07785      297.05058      303.5632       308.37696      169412.8      -60.276598      93           
   4797000   1258083        681.2928       1257401.7      0.24549523     221.31894      303.34462      299.79126      299.94333      310.0127       169502.82      72.791876      97           
   4798000   1258076        679.33908      1257396.6      0.24549523     220.68427      260.56677      299.08745      298.82839      311.60926      169416.26     -57.400157      97           
   4799000   1258081.2      680.11525      1257401.1      0.24549523     220.93641      281.84234      301.08996      296.01783      313.31654      169488.27      58.702865      102          
   4800000   1258086.7      683.3899       1257403.3      0.24549523     222.00018      313.08343      297.13082      305.57379      312.93309      169434.43     -33.563575      102          
   4801000   1258086.2      683.95178      1257402.3      0.24549523     222.18271      295.80478      303.86788      296.56351      312.46577      169463.55      26.288175      104          
   4802000   1258072.3      678.52037      1257393.8      0.24549523     220.41831      293.25092      298.419        298.40885      311.51368      169428.56     -7.5506274      112          
   4803000   1258075.6      678.59492      1257397.1      0.24549523     220.44253      283.80233      298.512        298.52119      311.28251      169473.82     -9.342788       103          
   4804000   1258078.2      677.93385      1257400.2      0.24549523     220.22778      291.52808      292.99983      306.4463       309.19185      169479.07      36.478627      104          
   4805000   1258079.7      674.99286      1257404.8      0.24549523     219.27239      293.89875      294.93295      300.06455      308.48681      169438.89     -39.240005      101          
   4806000   1258077.9      678.32716      1257399.6      0.24549523     220.35554      309.4131       298.15016      298.99115      308.80828      169469.78      52.444481      106          
   4807000   1258084.2      682.93839      1257401.2      0.24549523     221.85351      322.23787      305.41932      293.58677      308.34294      169434.05     -47.378356      108          
   4808000   1258081        680.87485      1257400.1      0.24549523     221.18316      290.88902      304.34641      292.53943      310.89588      169477.82      49.789661      99           
   4809000   1258088.8      683.96794      1257404.8      0.24549523     222.18796      289.33313      303.15298      297.66244      312.67018      169432.07     -37.059113      91           
   4810000   1258079.4      679.56494      1257399.8      0.24549523     220.75764      296.76168      296.9431       301.57443      312.39065      169490.62      36.693593      98           
   4811000   1258076.4      676.12037      1257400.3      0.24549523     219.63866      290.75289      294.70582      300.88737      312.0992       169423.53     -12.940231      102          
   4812000   1258081.5      679.02714      1257402.5      0.24549523     220.58293      313.50968      297.60317      300.01206      311.63915      169487.99      2.7675319      100          
   4813000   1258075.3      682.96537      1257392.4      0.24549523     221.86227      298.07382      303.48255      296.26015      311.00665      169430.58      22.73212       95           
   4814000   1258080.6      677.89541      1257402.7      0.24549523     220.21529      245.69809      296.79652      300.81353      311.37323      169431.77     -31.513447      93           
   4815000   1258076.5      678.86297      1257397.6      0.24549523     220.5296       317.57939      298.93163      297.84021      310.66163      169461.73      50.164491      90           
   4816000   1258083.5      681.83403      1257401.7      0.24549523     221.49475      309.15539      298.7769       301.57316      311.79568      169414.6      -45.564898      98           
   4817000   1258074.9      677.19315      1257397.7      0.24549523     219.98716      313.47516      299.57205      294.63888      311.82904      169499.14      56.47924       79           
   4818000   1258091.8      682.23726      1257409.5      0.24549523     221.62574      310.7291       301.4209       298.63332      309.67097      169400.38     -45.493611      86           
   4819000   1258080.4      679.4395       1257400.9      0.24549523     220.71689      300.53679      300.65104      296.49034      309.65885      169493.06      39.904648      86           
   4820000   1258083.5      682.2323       1257401.3      0.24549523     221.62413      297.89531      301.41816      298.75259      309.84486      169411.45     -21.363822      83           
   4821000   1258093.8      684.98831      1257408.8      0.24549523     222.51943      298.80174      303.16936      299.45742      309.97243      169468.64      12.718893      88           
   4822000   1258085.4      684.83127      1257400.5      0.24549523     222.46841      269.93323      301.66803      301.45834      311.65887      169419.1       5.1886949      84           
   4823000   1258085.1      686.06681      1257399        0.24549523     222.86978      247.5451       299.97262      305.53842      312.99625      169429.8      -13.26739       91           
   4824000   1258083.3      680.40171      1257402.9      0.24549523     221.02946      239.13032      299.3028       299.45718      314.17523      169471.74      31.815153      97           
   4825000   1258082.6      686.0705       1257396.5      0.24549523     222.87098      287.74662      303.14548      299.76223      314.76645      169432.91     -30.740856      100          
   4826000   1258093        687.22512      1257405.8      0.24549523     223.24606      290.14656      300.6742       305.34637      312.88273      169496.68      47.083976      96           
   4827000   1258085.9      682.33743      1257403.6      0.24549523     221.65829      283.29695      297.63079      304.83729      309.90718      169405.14     -42.084454      104          
   4828000   1258072.8      676.89334      1257395.9      0.24549523     219.88977      314.08283      297.18936      298.95239      307.97447      169491.26      46.430281      99           
   4829000   1258078.6      679.59659      1257399        0.24549523     220.76792      307.5169       297.84852      300.57471      310.55644      169398.74     -36.926724      105          
   4830000   1258084.4      676.95568      1257407.4      0.24549523     219.91002      314.74907      296.15594      299.49353      311.50184      169472         38.801779      107          
   4831000   1258086.9      685.39427      1257401.5      0.24549523     222.6513       309.18412      300.23931      303.66911      312.24994      169428.63     -16.693275      100          
   4832000   1258078.7      678.20379      1257400.5      0.24549523     220.31547      296.44233      300.41788      294.02764      314.91101      169451.89      8.9329582      104          
   4833000   1258076        676.59069      1257399.4      0.24549523     219.79145      298.70308      297.08308      297.37981      313.46419      169479.67      17.432702      101          
   4834000   1258082.7      678.33402      1257404.4      0.24549523     220.35777      258.63637      298.36231      298.37257      312.61096      169433.55     -26.469702      96           
   4835000   1258086.2      686.70394      1257399.5      0.24549523     223.07675      277.04811      302.0527       303.49212      310.22996      169472.95      49.079445      88           
   4836000   1258091.8      681.58131      1257410.2      0.24549523     221.41266      300.342        300.28083      300.50733      306.54137      169415.59     -42.807834      90           
   4837000   1258085        684.1467       1257400.8      0.24549523     222.24603      361.75017      303.71693      298.26664      304.25741      169490.16      60.373493      88           
   4838000   1258083.6      678.54193      1257405.1      0.24549523     220.42531      333.42235      299.24309      298.50495      304.18739      169404.71     -51.017414      90           
   4839000   1258089.3      683.76765      1257405.5      0.24549523     222.1229       302.28476      301.49979      301.66104      305.37164      169490.92      45.949206      89           
   4840000   1258086.3      681.77886      1257404.5      0.24549523     221.47683      324.15176      302.30316      297.54543      305.96573      169423.07     -23.908885      88           
   4841000   1258080.6      680.98006      1257399.6      0.24549523     221.21734      299.15282      298.88287      301.56289      307.83563      169441.38      15.899995      94           
   4842000   1258080.3      681.77568      1257398.5      0.24549523     221.4758       262.16691      301.36757      299.3506       307.67227      169462.99      7.2384314      88           
   4843000   1258077.2      682.26723      1257394.9      0.24549523     221.63548      297.37776      300.69488      300.61939      307.15583      169426.16     -10.603547      89           
   4844000   1258085.6      678.08297      1257407.5      0.24549523     220.27622      317.16635      296.56887      301.80151      305.67013      169468.43      35.153736      88           
   4845000   1258081.5      678.18173      1257403.3      0.24549523     220.3083       311.20805      298.21251      300.32232      302.68208      169432.97     -35.105309      94           
   4846000   1258092.7      684.47703      1257408.3      0.24549523     222.35334      287.58469      303.34476      300.46336      303.56536      169499.25      42.3074        96           
   4847000   1258084.7      684.49798      1257400.2      0.24549523     222.36014      284.35117      302.90589      301.14875      303.64398      169405.67     -27.855181      97           
   4848000   1258086.7      682.63227      1257404        0.24549523     221.75406      291.19435      300.97208      301.3919       304.7928       169490.82      22.50711       100          
   4849000   1258081.3      683.09668      1257398.2      0.24549523     221.90493      275.55959      300.5443       302.27747      306.74547      169421.43     -8.1884117      95           
   4850000   1258078.2      678.38591      1257399.8      0.24549523     220.37463      280.33132      296.49977      302.22378      307.87756      169464.04      4.3495146      93           
   4851000   1258083.4      681.40719      1257402        0.24549523     221.3561       353.63004      302.21423      296.69369      306.27183      169462.63      16.942566      90           
   4852000   1258079.1      676.16329      1257402.9      0.24549523     219.65261      353.94243      299.92         293.95354      305.49791      169426.93     -14.627221      88           
   4853000   1258092.4      685.99585      1257406.4      0.24549523     222.84673      368.55136      302.85532      301.89129      304.00419      169453.7       31.003886      83           
   4854000   1258081.8      680.67469      1257401.1      0.24549523     221.11814      343.24525      296.9121       304.94264      302.72918      169445.02     -14.241227      81           
   4855000   1258081.7      684.57802      1257397.2      0.24549523     222.38615      305.05274      304.78821      298.15663      303.56843      169490.37      20.476701      84           
   4856000   1258082.7      679.10291      1257403.6      0.24549523     220.60755      336.92045      302.35846      294.67872      303.40368      169443.06      2.9842205      88           
   4857000   1258075        677.94404      1257397.1      0.24549523     220.23109      331.59536      298.38313      299.17018      303.93272      169444.64     -5.4204323      87           
   4858000   1258076.2      679.05333      1257397.1      0.24549523     220.59144      319.69712      298.74777      300.35075      303.13367      169432.74      15.601832      93           
   4859000   1258067.9      669.16916      1257398.8      0.24549523     217.38056      330.63413      293.18822      296.32042      303.57363      169464.28     -15.569503      98           
   4860000   1258074.2      677.65722      1257396.5      0.24549523     220.13791      292.97242      299.33681      297.77607      304.50643      169442.42      27.871661      99           
   4861000   1258086.3      683.06916      1257403.3      0.24549523     221.89599      302.15293      300.97461      302.23126      303.1389       169425.13     -26.4735        106          
   4862000   1258080.7      683.33899      1257397.3      0.24549523     221.98364      293.57277      302.6806       300.24672      302.39667      169476.68      31.572942      100          
   4863000   1258081.6      681.82611      1257399.8      0.24549523     221.49218      275.23504      304.33841      296.14951      302.46661      169427        -21.526202      97           
   4864000   1258079.9      682.63876      1257397.3      0.24549523     221.75617      292.58339      301.48115      300.87845      303.75479      169465.37      20.565168      95           
   4865000   1258078        671.13375      1257406.8      0.24549523     218.01876      263.47722      296.11077      295.02675      304.64344      169434.6      -6.4896833      98           
   4866000   1258083.4      683.27909      1257400.1      0.24549523     221.96418      301.05681      300.28977      303.5527       302.93773      169459.88      1.1024296      109          
   4867000   1258084.4      679.88758      1257404.5      0.24549523     220.86245      301.4911       301.27066      297.86808      303.31517      169446.58      20.506628      113          
   4868000   1258086.3      681.13276      1257405.2      0.24549523     221.26695      285.3148       301.77827      299.27038      301.73096      169441        -24.104747      112          
   4869000   1258080.5      682.19295      1257398.3      0.24549523     221.61135      297.81383      300.97178      301.54638      301.79953      169462.38      29.830818      112          
   4870000   1258083.5      678.66896      1257404.8      0.24549523     220.46658      314.6914       296.75821      303.96166      299.10542      169442.23     -29.060843      113          
   4871000   1258076.2      676.06251      1257400.1      0.24549523     219.61987      321.66697      300.0576       295.70657      298.92209      169454.36      37.035532      116          
   4872000   1258081.9      679.2716       1257402.7      0.24549523     220.66235      286.5033       297.89096      302.70279      302.08716      169416.06     -27.984466      100          
   4873000   1258086.7      684.51502      1257402.2      0.24549523     222.36568      283.64722      298.00362      308.44451      304.47039      169483.7       38.090717      96           
   4874000   1258077.6      678.04008      1257399.5      0.24549523     220.26229      315.34         299.78925      297.49664      303.49954      169429.79     -32.43695       86           
   4875000   1258086.9      685.62433      1257401.2      0.24549523     222.72604      299.1164       304.20835      299.89992      305.39951      169501.59      36.251607      82           
   4876000   1258075.7      677.20345      1257398.5      0.24549523     219.9905       302.58865      300.30728      295.8962       303.42702      169431.08     -27.946077      87           
   4877000   1258089        682.82306      1257406.2      0.24549523     221.81604      299.46763      299.92291      303.30842      303.74314      169460.15      26.481914      81           
   4878000   1258078.7      674.63377      1257404.1      0.24549523     219.15574      308.47436      300.11491      293.59906      301.08973      169445.89     -11.60647       84           
   4879000   1258090.7      683.14132      1257407.6      0.24549523     221.91943      301.88177      299.40324      305.12554      301.3423       169478.4       11.569858      81           
   4880000   1258079.5      675.99498      1257403.5      0.24549523     219.59793      287.59864      299.78148      295.77471      302.06506      169430.58      2.7627751      89           
   4881000   1258071.7      671.52501      1257400.2      0.24549523     218.14586      335.22411      295.8906       295.47161      302.01333      169452.05     -7.6323409      88           
   4882000   1258082.2      676.07948      1257406.1      0.24549523     219.62538      317.36677      297.88483      298.32096      302.07324      169480.71      25.634228      86           
   4883000   1258085.7      680.99651      1257404.7      0.24549523     221.22268      288.09223      301.02233      299.85201      302.7621       169420.53     -19.698793      83           
   4884000   1258077.2      673.84515      1257403.4      0.24549523     218.89956      340.26291      297.67367      295.99744      300.44339      169465.12      38.758796      89           
   4885000   1258082        678.31299      1257403.7      0.24549523     220.35094      313.733        300.37569      298.07718      299.45794      169456        -30.536621      82           
   4886000   1258089.7      682.58028      1257407.1      0.24549523     221.73717      323.21421      301.58171      302.13977      297.45937      169488.49      35.051251      77           
   4887000   1258083.3      678.74805      1257404.6      0.24549523     220.49227      280.99193      300.2032       299.68335      297.99121      169399.32     -31.342441      81           
   4888000   1258091.9      685.42159      1257406.5      0.24549523     222.66018      313.4873       303.07909      302.81564      299.299        169473.9       32.55907       74           
   4889000   1258085        675.6978       1257409.3      0.24549523     219.50139      294.69223      298.20335      297.95046      300.99049      169419.65     -25.930074      69           
   4890000   1258077.9      678.19925      1257399.7      0.24549523     220.31399      277.92635      299.32405      298.59926      304.10977      169484.22      29.827276      68           
   4891000   1258085.3      681.96397      1257403.4      0.24549523     221.53697      256.03058      302.0482       299.07606      305.75424      169434.32     -15.569053      78           
   4892000   1258068.4      675.73444      1257392.6      0.24549523     219.5133       312.22892      298.0106       297.46568      303.2621       169456.5       6.8323414      81           
   4893000   1258087.5      686.17075      1257401.3      0.24549523     222.90354      354.63497      301.21828      305.336        301.70489      169481.52      15.091851      83           
   4894000   1258085.1      681.58007      1257403.5      0.24549523     221.41226      300.10247      297.06598      306.96409      300.43287      169412.94     -17.139787      80           
   4895000   1258087.2      681.39296      1257405.8      0.24549523     221.35147      260.21715      301.92883      299.9926       300.19199      169495.71      30.046722      77           
   4896000   1258089.7      677.64156      1257412        0.24549523     220.13282      328.38601      300.05292      297.79009      298.84067      169411.37     -27.090058      79           
   4897000   1258107.3      692.76362      1257414.6      0.24549523     225.04525      320.01069      307.3951       305.03537      300.17414      169498.27      40.420794      76           
   4898000   1258085.4      680.4012       1257405        0.24549523     221.0293       339.78778      299.16053      301.81903      300.80901      169394.39     -35.024118      75           
   4899000   1258074.2      676.34111      1257397.9      0.24549523     219.71037      357.62732      294.99315      302.84745      300.98179      169486.77      35.544472      74           
   4900000   1258081.7      680.49221      1257401.3      0.24549523     221.05887      350.40601      303.35014      295.23036      301.56554      169425.18     -27.564709      84           
   4901000   1258082.5      679.92325      1257402.6      0.24549523     220.87404      335.37793      301.03964      298.31012      301.11049      169452.2       19.296824      87           
   4902000   1258072.7      675.89369      1257396.8      0.24549523     219.56503      310.71574      296.20547      301.28655      299.86213      169455.84     -1.3422592      93           
   4903000   1258074.4      672.8318       1257401.6      0.24549523     218.57037      301.02389      298.83152      294.01825      298.55728      169450.56      3.334016       94           
   4904000   1258085.3      683.03581      1257402.3      0.24549523     221.88516      266.06756      301.05632      303.97787      297.78734      169479.98      18.564275      93           
   4905000   1258076.4      675.57728      1257400.8      0.24549523     219.46224      257.89943      300.16706      296.12093      298.13446      169434.16     -17.319948      94           
   4906000   1258069.1      672.97891      1257396.1      0.24549523     218.61816      274.4856       297.74334      295.80053      300.27524      169482.73      34.739883      91           
   4907000   1258076.2      679.33752      1257396.9      0.24549523     220.68376      265.89774      300.85529      298.59054      302.10916      169450.63     -41.931547      94           
   4908000   1258080.3      679.91393      1257400.4      0.24549523     220.87101      263.76731      300.87551      298.86969      303.53876      169473.68      46.798448      86           
   4909000   1258082.3      681.57353      1257400.7      0.24549523     221.41013      330.61693      300.53741      300.43434      303.64062      169400.2      -36.564603      100          
   4910000   1258080.4      678.00985      1257402.4      0.24549523     220.25246      297.83167      297.50044      301.40902      302.58357      169477.78      30.333221      98           
   4911000   1258076.3      676.26746      1257400.1      0.24549523     219.68645      284.56639      297.32407      300.27201      300.63324      169446.16     -5.829022       94           
   4912000   1258077.2      681.85817      1257395.4      0.24549523     221.5026       285.23217      302.2941       300.12086      298.81384      169431.53     -8.5686819      96           
   4913000   1258076.7      680.57947      1257396.1      0.24549523     221.08721      316.44158      298.5226       304.14093      297.44523      169493.09      36.1904        87           
   4914000   1258082.4      678.21552      1257404.2      0.24549523     220.31928      297.66178      300.35887      298.79902      297.31606      169446.42     -45.614157      87           
   4915000   1258083.1      673.02478      1257410.1      0.24549523     218.63306      306.2939       297.20064      296.54364      299.04081      169461.02      56.289731      94           
   4916000   1258087.9      678.92027      1257409        0.24549523     220.54822      288.02328      300.00059      299.68937      299.65922      169422.76     -49.776005      95           
   4917000   1258074.6      676.82518      1257397.8      0.24549523     219.86762      300.71239      302.30577      293.77123      298.3878       169507.13      46.619783      103          
   4918000   1258072        674.03258      1257397.9      0.24549523     218.96044      308.18871      296.24018      299.43804      298.10655      169408.14     -31.493311      99           
   4919000   1258084.2      679.34104      1257404.9      0.24549523     220.68491      306.14856      296.10626      306.55862      296.95039      169472.71      16.224156      95           
   4920000   1258085        681.7025       1257403.3      0.24549523     221.45203      280.37545      303.01585      299.66582      296.02815      169457.36      13.527354      95           
   4921000   1258086.7      682.50938      1257404.1      0.24549523     221.71415      314.09747      304.74725      297.96697      294.20447      169439.91     -30.527281      98           
   4922000   1258079.4      678.48907      1257401        0.24549523     220.40814      313.70322      299.6386       300.8573       293.7913       169489.84      51.962465      102          
   4923000   1258074.3      678.25083      1257396.1      0.24549523     220.33075      245.87831      300.30605      300.31431      294.96783      169415.55     -57.520294      93           
   4924000   1258079.4      678.82152      1257400.6      0.24549523     220.51614      270.15415      299.56008      301.46645      295.82608      169502.81      63.679002      90           
   4925000   1258072.6      673.91433      1257398.7      0.24549523     218.92203      240.17776      295.88201      301.09503      297.1367       169403.65     -51.927185      94           
   4926000   1258082.3      679.51505      1257402.8      0.24549523     220.74143      285.18964      299.17653      302.22738      297.73915      169474.52      48.587668      100          
   4927000   1258079        679.34834      1257399.7      0.24549523     220.68728      306.10954      298.74086      302.44718      297.32376      169454.57     -21.470561      105          
   4928000   1258081.5      683.30086      1257398.2      0.24549523     221.97126      272.97125      301.0102       304.23062      298.04297      169471.58      11.994153      93           
   4929000   1258093.3      684.84198      1257408.5      0.24549523     222.47189      275.34389      300.50361      306.68253      298.64359      169453.79      20.781196      107          
   4930000   1258083.1      683.6964       1257399.4      0.24549523     222.09975      289.87517      303.60674      300.25202      299.20566      169447.59     -38.645553      109          
   4931000   1258078.8      677.96597      1257400.9      0.24549523     220.23821      273.58663      298.14919      301.82206      298.64415      169463.63      60.724662      104          
   4932000   1258071.9      675.75354      1257396.2      0.24549523     219.5195       269.23282      297.34181      300.52021      298.17586      169436.92     -63.334314      106          
   4933000   1258076.1      678.16411      1257397.9      0.24549523     220.30258      291.92316      298.70801      301.2673       297.34245      169498.58      69.33435       102          
   4934000   1258082.4      681.95139      1257400.4      0.24549523     221.53288      290.83024      302.28188      300.7963       296.46693      169409.77     -52.70153       100          
   4935000   1258081.2      685.35626      1257395.8      0.24549523     222.63896      273.48813      302.35149      304.84539      297.63716      169495.6       44.607942      101          
   4936000   1258080.4      677.25455      1257403.2      0.24549523     220.00711      293.46114      300.41706      297.67862      297.05981      169430.52     -17.276237      107          
   4937000   1258086.7      683.34174      1257403.3      0.24549523     221.98454      331.98391      301.48517      302.99739      296.77593      169452.98      7.5904514      96           
   4938000   1258084        686.837        1257397.1      0.24549523     223.11998      309.85985      307.06115      298.80467      298.43718      169456.68      16.331883      94           
   4939000   1258076.2      673.64852      1257402.5      0.24549523     218.83568      313.91068      299.22156      294.12303      299.15927      169446.69     -26.65852       96           
   4940000   1258092.2      687.82665      1257404.3      0.24549523     223.44147      306.89353      306.07195      301.15631      299.8805       169463.09      48.305022      106          
   4941000   1258085.4      677.24763      1257408.2      0.24549523     220.00486      323.67853      301.37848      295.27338      298.73855      169438.92     -50.951215      90           
   4942000   1258086.6      680.07014      1257406.5      0.24549523     220.92175      340.51903      302.01769      297.94548      297.43724      169457.16      57.2515        85           
   4943000   1258089.8      684.96795      1257404.8      0.24549523     222.51281      278.31156      303.05961      303.48336      296.58359      169440.34     -51.051545      78           
   4944000   1258078.4      678.39939      1257400        0.24549523     220.37901      336.51864      301.31793      296.96844      297.56086      169464.51      45.189325      84           
   4945000   1258077.7      674.35712      1257403.3      0.24549523     219.06587      280.48906      298.0417       297.4936       298.24317      169434.83     -17.470182      88           
   4946000   1258079.3      678.66797      1257400.6      0.24549523     220.46626      313.43121      299.78494      299.7792       297.96437      169453.5       9.2725621      93           
   4947000   1258081.4      677.81964      1257403.6      0.24549523     220.19067      295.04845      301.72122      295.61845      300.08303      169427.93      13.280153      92           
   4948000   1258089.7      682.45738      1257407.2      0.24549523     221.69725      311.59676      300.82498      302.00022      301.27186      169484.23     -15.865675      88           
   4949000   1258077.6      680.14671      1257397.4      0.24549523     220.94663      317.25813      297.43377      304.04269      301.81302      169465.23      34.493697      98           
   4950000   1258078.4      676.91368      1257401.5      0.24549523     219.89637      331.84802      295.93436      302.93267      298.72114      169410.54     -36.067756      103          
   4951000   1258082.2      681.2686       1257400.9      0.24549523     221.31108      312.45202      299.93707      302.88249      297.37046      169482.32      48.507986      109          
   4952000   1258090.7      684.60118      1257406.1      0.24549523     222.39367      301.77674      303.82597      301.2823       297.47873      169439.72     -42.977164      114          
   4953000   1258079.4      680.00143      1257399.4      0.24549523     220.89943      349.13962      300.32286      300.58657      295.38304      169482.22      45.955587      115          
   4954000   1258097.2      685.75677      1257411.5      0.24549523     222.76906      318.76132      303.8879       302.19224      297.99635      169419.52     -31.312651      107          
   4955000   1258085.1      681.64138      1257403.4      0.24549523     221.43217      309.99135      301.81479      299.65344      300.84381      169479.77      25.87123       102          
   4956000   1258073.5      677.94206      1257395.5      0.24549523     220.23044      305.11868      297.70829      301.07502      302.00449      169439.52     -5.7632728      102          
   4957000   1258081.2      679.84053      1257401.4      0.24549523     220.84716      334.13463      301.93055      296.74899      301.21837      169443.78     -5.3572758      111          
   4958000   1258083.7      684.61929      1257399.1      0.24549523     222.39955      282.86322      299.89326      306.65376      300.7702       169444.97      29.119935      104          
   4959000   1258087.6      685.81947      1257401.8      0.24549523     222.78943      303.9209       303.55917      303.02241      297.93605      169442.85     -41.057004      105          
   4960000   1258080.6      681.77366      1257398.8      0.24549523     221.47514      279.63577      301.69448      301.62656      296.50814      169445.19      60.114481      100          
   4961000   1258082.3      678.64338      1257403.6      0.24549523     220.45827      293.2191       298.09725      302.9294       296.68111      169429.5      -61.223515      102          
   4962000   1258078.4      675.40078      1257403        0.24549523     219.40491      266.06035      299.97576      296.36689      297.45743      169461.14      61.558972      106          
   4963000   1258083        683.35063      1257399.7      0.24549523     221.98742      274.10945      305.19606      298.04665      297.73055      169413.69     -42.265599      101          
   4964000   1258081.2      677.29106      1257403.9      0.24549523     220.01897      264.35968      302.09511      295.18155      298.51489      169485.62      37.103425      98           
   4965000   1258086.1      682.73617      1257403.4      0.24549523     221.78782      237.49795      302.16851      301.98091      299.11484      169441.05     -9.8845161      91           
   4966000   1258076.7      682.99515      1257393.7      0.24549523     221.87195      274.57414      300.52242      304.35381      298.80965      169439.08     -10.731593      98           
   4967000   1258079.8      676.96294      1257402.8      0.24549523     219.91237      261.35083      299.86301      298.19937      298.54172      169493.73      37.84486       95           
   4968000   1258092.3      681.64881      1257410.6      0.24549523     221.43459      267.90371      300.7556       302.73649      297.71434      169442.99     -44.103049      91           
   4969000   1258080.4      676.93858      1257403.5      0.24549523     219.90446      262.25943      299.33642      298.95035      298.49966      169453.2       53.607068      96           
   4970000   1258083.9      679.78758      1257404.1      0.24549523     220.82996      289.70701      298.78605      303.02264      297.89515      169413.88     -48.303554      92           
   4971000   1258091.1      682.48986      1257408.6      0.24549523     221.7078       277.38621      301.03451      303.05202      298.21997      169502.13      52.817177      91           
   4972000   1258083.1      678.59176      1257404.5      0.24549523     220.4415       286.04856      299.25553      300.62641      298.84948      169426.84     -37.05817       83           
   4973000   1258076.5      676.96948      1257399.6      0.24549523     219.9145       276.55677      301.45567      295.53101      298.41561      169443.84      36.926823      84           
   4974000   1258083.2      682.98491      1257400.2      0.24549523     221.86862      272.67106      301.74296      302.47241      298.88038      169478.6      -14.085676      86           
   4975000   1258087.3      682.06657      1257405.2      0.24549523     221.5703       284.00928      298.87211      305.50158      298.88381      169432.35      13.613821      86           
   4976000   1258085.5      678.25504      1257407.3      0.24549523     220.33212      285.39888      297.6689       302.89266      297.87024      169462.49      4.5768192      88           
   4977000   1258077.7      675.91852      1257401.8      0.24549523     219.57309      275.32209      298.20486      299.11338      298.72147      169451.55     -14.637906      96           
   4978000   1258071.5      672.65608      1257398.9      0.24549523     218.51329      261.11011      296.01796      298.82998      298.00599      169471.68      35.136816      97           
   4979000   1258078.7      680.73719      1257397.9      0.24549523     221.13844      249.68181      300.10653      302.56607      298.77741      169430.13     -34.399774      94           
   4980000   1258086.8      682.31177      1257404.4      0.24549523     221.64995      281.28535      302.34783      300.33258      299.98449      169459.72      42.186739      101          
   4981000   1258076.9      671.79563      1257405.1      0.24549523     218.23377      254.87797      296.77961      295.75825      301.63369      169477.85     -26.978382      97           
   4982000   1258077.8      679.63669      1257398.1      0.24549523     220.78095      255.6031       299.70039      300.62678      302.85565      169441.25      23.724487      91           
   4983000   1258077.9      680.88004      1257397        0.24549523     221.18485      257.47113      300.35474      301.03368      303.32744      169464.89      0.81190187     93           
   4984000   1258076.8      673.43259      1257403.3      0.24549523     218.76553      248.75402      297.45029      296.70544      302.20049      169447.83     -8.8354376      97           
   4985000   1258076.4      674.82986      1257401.6      0.24549523     219.21944      300.98795      297.88515      297.85366      298.87363      169463.5       29.456826      103          
   4986000   1258071.9      671.03574      1257400.8      0.24549523     217.98692      265.92367      298.61351      292.86027      298.10003      169429.11     -22.440241      102          
   4987000   1258074.1      677.00813      1257397.1      0.24549523     219.92705      264.52341      299.68696      298.51048      298.35256      169460.21      28.042903      102          
   4988000   1258079.9      683.42792      1257396.5      0.24549523     222.01253      262.34258      304.68362      298.81209      298.90038      169438.01     -19.445124      100          
   4989000   1258082.4      685.82485      1257396.6      0.24549523     222.79118      281.93069      302.62162      304.21825      300.22799      169482.14      23.485094      109          
   4990000   1258071.8      673.76876      1257398        0.24549523     218.87474      299.24089      297.60897      296.71359      299.77076      169415.49     -17.992645      100          
   4991000   1258079.2      676.80118      1257402.4      0.24549523     219.85983      324.35392      299.29527      297.46961      300.2277       169480.82      21.006793      90           
   4992000   1258084.8      683.40699      1257401.4      0.24549523     222.00573      368.83889      301.71281      301.8634       298.13213      169440.07     -1.1926527      92           
   4993000   1258085        681.53209      1257403.5      0.24549523     221.39667      322.7009       297.5866       306.21006      298.79378      169431.5      -3.7198774      104          
   4994000   1258072.4      671.22577      1257401.2      0.24549523     218.04865      325.16621      297.02081      294.29183      299.03238      169465.67      18.944523      102          
   4995000   1258078.2      681.64768      1257396.6      0.24549523     221.43422      258.10543      301.34397      301.77009      298.79665      169433.8      -17.272089      106          
   4996000   1258073.8      678.61209      1257395.2      0.24549523     220.44811      238.35775      298.66065      302.53535      298.2232       169481.73      24.906243      104          
   4997000   1258082.3      677.64388      1257404.7      0.24549523     220.13358      270.23651      298.68019      301.1082       296.96789      169439.01     -8.2316148      100          
   4998000   1258082.8      681.75384      1257401.1      0.24549523     221.4687       269.24882      301.79819      301.4275       297.11191      169480.7       6.9454433      95           
   4999000   1258075.2      677.54056      1257397.7      0.24549523     220.10002      336.8748       298.95452      299.86669      295.60935      169451.86      10.483039      102          
   5000000   1258088.2      683.38698      1257404.8      0.24549523     221.99923      313.7171       302.73438      301.55081      296.33318      169432.09     -11.05969       102          
   5000022   1258088.2      678.52038      1257409.7      0.24549523     220.41831      304.05565      300.04026      299.75139      296.41774      169445.19      11.786173      102          
Loop time of 16023.8 on 76 procs for 5000000 steps with 23816 atoms

Performance: 26.960 ns/day, 0.890 hours/ns, 312.036 timesteps/s, 7.431 Matom-step/s
99.6% CPU use with 76 MPI tasks x 1 OpenMP threads

MPI task timing breakdown:
Section |  min time  |  avg time  |  max time  |%varavg| %total
---------------------------------------------------------------
Pair    | 5065.6     | 7058.7     | 11538      |2448.6 | 44.05
Bond    | 0.78332    | 2.2403     | 7.6713     |  96.6 |  0.01
Neigh   | 482.34     | 493.89     | 506.03     |  30.9 |  3.08
Comm    | 3130.4     | 7230       | 9401       |2347.9 | 45.12
Output  | 42.709     | 44.962     | 46.915     |  18.3 |  0.28
Modify  | 167        | 1103.7     | 7201.3     |5080.0 |  6.89
Other   |            | 90.34      |            |       |  0.56

Nlocal:        313.368 ave         822 max           0 min
Histogram: 40 4 0 4 0 0 0 0 2 26
Nghost:        9085.89 ave       11429 max         343 min
Histogram: 4 0 0 0 8 4 0 8 8 44
Neighs:              0 ave           0 max           0 min
Histogram: 76 0 0 0 0 0 0 0 0 0

Total # of neighbors = 0
Ave neighs/atom = 0
Ave special neighs/atom = 0.074235808
Neighbor list builds = 111626
Dangerous builds = 0

print                   "simulation done."
simulation done.

#--------------------------------------------------------------------------------------------------------------------

#max temperature should approx. 1800 K
Total wall time: 4:27:04
